AtomMove.TypeOfRun static
IO.Coordinates coords.dat
IO.Iprint 0
Grid.GridCutoff  50
Diag.MPMesh   T
Diag.GammaCentred T
Diag.MPMeshX  2
Diag.MPMeshY  2
Diag.MPMeshZ  2
General.NumberOfSpecies  1
%block ChemicalSpeciesLabel
 1 28.086 Si
%endblock
