1  3
Na    9    0.246328   -7.545593    1.125997    0.000000    0.000000
           0.141251   36.556987    0.000000    0.000000
           0.139668  -10.392083    0.000000    0.000000
                       0.000000    0.000000    0.000000
3
2 0 2.0 1
2 1 6.0 1
3 0 1.0 0

# lmax  iexc
# element, Zeff, rloc and coeffs
# l=0 r0, hnn
# l=1 r1, hnn
# knn for l=1
# l=2 r2, hnn
# knn for l=2
# Number of shells
# n, l, occ per shell

# HGH PBE
Si GTH-PBE-q4 GTH-PBE
    2    2
     0.44000000    1    -6.26928833
    2
     0.43563383    2     8.95174150    -2.70627082
                                        3.49378060
     0.49794218    1     2.43127673

#
# s, p
