
CRYSTAL
PRIMVEC          0
    6.34607605    0.00000000    0.00000000
    0.00000000    6.34607605    0.00000000
    0.00000000    0.00000000    6.34607605
PRIMCOORD        0
       3       1
   H      3.77047737      2.40755947      3.17303802
   H      3.77047737      3.93851657      3.17303802
   O      3.16548840      3.17303802      3.17303802

CRYSTAL
PRIMVEC          1
    6.34607605    0.00000000    0.00000000
    0.00000000    6.34607605    0.00000000
    0.00000000    0.00000000    6.34607605
PRIMCOORD        1
       3       1
   H      3.73791401      2.43523248      3.16248346
   H      3.78426600      3.93756686      3.16939741
   O      3.16667964      3.17135435      3.17393238

CRYSTAL
PRIMVEC          2
    6.34607605    0.00000000    0.00000000
    0.00000000    6.34607605    0.00000000
    0.00000000    0.00000000    6.34607605
PRIMCOORD        2
       3       1
   H      3.72213242      2.44176823      3.15270501
   H      3.79392707      3.93382623      3.16614553
   O      3.16707084      3.17117605      3.17475408

CRYSTAL
PRIMVEC          3
    6.34607605    0.00000000    0.00000000
    0.00000000    6.34607605    0.00000000
    0.00000000    0.00000000    6.34607605
PRIMCOORD        3
       3       1
   H      3.72676099      2.42121174      3.14283460
   H      3.79902106      3.92641201      3.16319664
   O      3.16646737      3.17293460      3.17556318

CRYSTAL
PRIMVEC          4
    6.34607605    0.00000000    0.00000000
    0.00000000    6.34607605    0.00000000
    0.00000000    0.00000000    6.34607605
PRIMCOORD        4
       3       1
   H      3.74347910      2.38304915      3.13190047
   H      3.80149786      3.91585621      3.16022960
   O      3.16526582      3.17600591      3.17644139

CRYSTAL
PRIMVEC          5
    6.34607605    0.00000000    0.00000000
    0.00000000    6.34607605    0.00000000
    0.00000000    0.00000000    6.34607605
PRIMCOORD        5
       3       1
   H      3.75794116      2.34871398      3.12152087
   H      3.80416713      3.90591111      3.15739903
   O      3.16419692      3.17879881      3.17727374

CRYSTAL
PRIMVEC          6
    6.34607605    0.00000000    0.00000000
    0.00000000    6.34607605    0.00000000
    0.00000000    0.00000000    6.34607605
PRIMCOORD        6
       3       1
   H      3.76231007      2.32880030      3.11186245
   H      3.81010050      3.89862667      3.15439205
   O      3.16355656      3.18051394      3.17807098

CRYSTAL
PRIMVEC          7
    6.34607605    0.00000000    0.00000000
    0.00000000    6.34607605    0.00000000
    0.00000000    0.00000000    6.34607605
PRIMCOORD        7
       3       1
   H      3.75291008      2.32987349      3.10410032
   H      3.81993746      3.89534634      3.15134284
   O      3.16353714      3.18065341      3.17875125

CRYSTAL
PRIMVEC          8
    6.34607605    0.00000000    0.00000000
    0.00000000    6.34607605    0.00000000
    0.00000000    0.00000000    6.34607605
PRIMCOORD        8
       3       1
   H      3.72803025      2.35187108      3.09682561
   H      3.83431179      3.89405385      3.14768045
   O      3.16420583      3.17934905      3.17943953

CRYSTAL
PRIMVEC          9
    6.34607605    0.00000000    0.00000000
    0.00000000    6.34607605    0.00000000
    0.00000000    0.00000000    6.34607605
PRIMCOORD        9
       3       1
   H      3.69399748      2.38581084      3.08990610
   H      3.84895344      3.89175436      3.14378059
   O      3.16543419      3.17735391      3.18012016

CRYSTAL
PRIMVEC         10
    6.34607605    0.00000000    0.00000000
    0.00000000    6.34607605    0.00000000
    0.00000000    0.00000000    6.34607605
PRIMCOORD       10
       3       1
   H      3.66487182      2.41097284      3.08198191
   H      3.85905380      3.88570577      3.14015989
   O      3.16663862      3.17615252      3.18084570

CRYSTAL
PRIMVEC         11
    6.34607605    0.00000000    0.00000000
    0.00000000    6.34607605    0.00000000
    0.00000000    0.00000000    6.34607605
PRIMCOORD       11
       3       1
   H      3.65201306      2.40800494      3.07022280
   H      3.86319534      3.87486135      3.13689004
   O      3.16719430      3.17702215      3.18178930

CRYSTAL
PRIMVEC         12
    6.34607605    0.00000000    0.00000000
    0.00000000    6.34607605    0.00000000
    0.00000000    0.00000000    6.34607605
PRIMCOORD       12
       3       1
   H      3.65617009      2.37408560      3.05358754
   H      3.86282919      3.86058425      3.13387765
   O      3.16696086      3.18005837      3.18302447

CRYSTAL
PRIMVEC         13
    6.34607605    0.00000000    0.00000000
    0.00000000    6.34607605    0.00000000
    0.00000000    0.00000000    6.34607605
PRIMCOORD       13
       3       1
   H      3.66629432      2.32731521      3.03447954
   H      3.86231609      3.84666449      3.13084182
   O      3.16636081      3.18388105      3.18441712

CRYSTAL
PRIMVEC         14
    6.34607605    0.00000000    0.00000000
    0.00000000    6.34607605    0.00000000
    0.00000000    0.00000000    6.34607605
PRIMCOORD       14
       3       1
   H      3.67044748      2.29081046      3.01737020
   H      3.86683623      3.83788493      3.12750096
   O      3.16582112      3.18672964      3.18570439

CRYSTAL
PRIMVEC         15
    6.34607605    0.00000000    0.00000000
    0.00000000    6.34607605    0.00000000
    0.00000000    0.00000000    6.34607605
PRIMCOORD       15
       3       1
   H      3.66313477      2.27773979      3.00540000
   H      3.87805396      3.83577965      3.12381684
   O      3.16558226      3.18768253      3.18668860

CRYSTAL
PRIMVEC         16
    6.34607605    0.00000000    0.00000000
    0.00000000    6.34607605    0.00000000
    0.00000000    0.00000000    6.34607605
PRIMCOORD       16
       3       1
   H      3.64347855      2.28880312      2.99820817
   H      3.89428261      3.83742821      3.11966247
   O      3.16580565      3.18687870      3.18740122

CRYSTAL
PRIMVEC         17
    6.34607605    0.00000000    0.00000000
    0.00000000    6.34607605    0.00000000
    0.00000000    0.00000000    6.34607605
PRIMCOORD       17
       3       1
   H      3.60833147      2.32421997      2.99375420
   H      3.91441499      3.83856593      3.11446475
   O      3.16675988      3.18457250      3.18800655

CRYSTAL
PRIMVEC         18
    6.34607605    0.00000000    0.00000000
    0.00000000    6.34607605    0.00000000
    0.00000000    0.00000000    6.34607605
PRIMCOORD       18
       3       1
   H      3.56962815      2.36520060      2.98985146
   H      3.92924663      3.83385813      3.10961563
   O      3.16827031      3.18228009      3.18855417

CRYSTAL
PRIMVEC         19
    6.34607605    0.00000000    0.00000000
    0.00000000    6.34607605    0.00000000
    0.00000000    0.00000000    6.34607605
PRIMCOORD       19
       3       1
   H      3.54000995      2.38556560      2.98055317
   H      3.93465664      3.82082929      3.10568752
   O      3.16979989      3.18181489      3.18938483

CRYSTAL
PRIMVEC         20
    6.34607605    0.00000000    0.00000000
    0.00000000    6.34607605    0.00000000
    0.00000000    0.00000000    6.34607605
PRIMCOORD       20
       3       1
   H      3.52897543      2.36636170      2.96169372
   H      3.93104386      3.80178831      3.10300457
   O      3.17072687      3.18422316      3.19073810

CRYSTAL
PRIMVEC         21
    6.34607605    0.00000000    0.00000000
    0.00000000    6.34607605    0.00000000
    0.00000000    0.00000000    6.34607605
PRIMCOORD       21
       3       1
   H      3.52943932      2.32064754      2.93583230
   H      3.92417546      3.78102132      3.10085666
   O      3.17113509      3.18841128      3.19249883

CRYSTAL
PRIMVEC         22
    6.34607605    0.00000000    0.00000000
    0.00000000    6.34607605    0.00000000
    0.00000000    0.00000000    6.34607605
PRIMCOORD       22
       3       1
   H      3.53027750      2.27139588      2.90823168
   H      3.92223320      3.76310946      3.09793999
   O      3.17120924      3.19263989      3.19441926

CRYSTAL
PRIMVEC         23
    6.34607605    0.00000000    0.00000000
    0.00000000    6.34607605    0.00000000
    0.00000000    0.00000000    6.34607605
PRIMCOORD       23
       3       1
   H      3.52408955      2.23880190      2.88482792
   H      3.93287287      3.75280204      3.09306231
   O      3.17093456      3.19533850      3.19619726

CRYSTAL
PRIMVEC         24
    6.34607605    0.00000000    0.00000000
    0.00000000    6.34607605    0.00000000
    0.00000000    0.00000000    6.34607605
PRIMCOORD       24
       3       1
   H      3.50759548      2.23335785      2.86912602
   H      3.95689994      3.74974411      3.08588722
   O      3.17046420      3.19586632      3.19763433

CRYSTAL
PRIMVEC         25
    6.34607605    0.00000000    0.00000000
    0.00000000    6.34607605    0.00000000
    0.00000000    0.00000000    6.34607605
PRIMCOORD       25
       3       1
   H      3.48229775      2.25688827      2.86332171
   H      3.98492200      3.74868156      3.07796971
   O      3.17029725      3.19444205      3.19849428

CRYSTAL
PRIMVEC         26
    6.34607605    0.00000000    0.00000000
    0.00000000    6.34607605    0.00000000
    0.00000000    0.00000000    6.34607605
PRIMCOORD       26
       3       1
   H      3.45065059      2.30225512      2.86523822
   H      4.00789710      3.74350224      3.07068278
   O      3.17084971      3.19190395      3.19882881

CRYSTAL
PRIMVEC         27
    6.34607605    0.00000000    0.00000000
    0.00000000    6.34607605    0.00000000
    0.00000000    0.00000000    6.34607605
PRIMCOORD       27
       3       1
   H      3.41539719      2.35581556      2.86917899
   H      4.02067833      3.73000889      3.06472346
   O      3.17227359      3.18937374      3.19895159

CRYSTAL
PRIMVEC         28
    6.34607605    0.00000000    0.00000000
    0.00000000    6.34607605    0.00000000
    0.00000000    0.00000000    6.34607605
PRIMCOORD       28
       3       1
   H      3.38532790      2.38632650      2.86377140
   H      4.01993322      3.70790440      3.06107747
   O      3.17422118      3.18883668      3.19951888

CRYSTAL
PRIMVEC         29
    6.34607605    0.00000000    0.00000000
    0.00000000    6.34607605    0.00000000
    0.00000000    0.00000000    6.34607605
PRIMCOORD       29
       3       1
   H      3.36329662      2.37179510      2.83830793
   H      4.00830881      3.67857612      3.05946744
   O      3.17634985      3.19160348      3.20122195

CRYSTAL
PRIMVEC         30
    6.34607605    0.00000000    0.00000000
    0.00000000    6.34607605    0.00000000
    0.00000000    0.00000000    6.34607605
PRIMCOORD       30
       3       1
   H      3.34492957      2.32264372      2.79629319
   H      3.99532683      3.64785353      3.05838048
   O      3.17833080      3.19663331      3.20393334

CRYSTAL
PRIMVEC         31
    6.34607605    0.00000000    0.00000000
    0.00000000    6.34607605    0.00000000
    0.00000000    0.00000000    6.34607605
PRIMCOORD       31
       3       1
   H      3.32622058      2.27658195      2.75703606
   H      3.99670712      3.62708330      3.05534182
   O      3.17942596      3.20083567      3.20659500

CRYSTAL
PRIMVEC         32
    6.34607605    0.00000000    0.00000000
    0.00000000    6.34607605    0.00000000
    0.00000000    0.00000000    6.34607605
PRIMCOORD       32
       3       1
   H      3.30361991      2.25120009      2.72779289
   H      4.01892800      3.61722659      3.04863487
   O      3.17945348      3.20305116      3.20885692

CRYSTAL
PRIMVEC         33
    6.34607605    0.00000000    0.00000000
    0.00000000    6.34607605    0.00000000
    0.00000000    0.00000000    6.34607605
PRIMCOORD       33
       3       1
   H      3.27846376      2.25531634      2.71410218
   H      4.05332414      3.61392105      3.03970755
   O      3.17887434      3.20299175      3.21028023

CRYSTAL
PRIMVEC         34
    6.34607605    0.00000000    0.00000000
    0.00000000    6.34607605    0.00000000
    0.00000000    0.00000000    6.34607605
PRIMCOORD       34
       3       1
   H      3.25030271      2.28846635      2.71516712
   H      4.08771471      3.60972619      3.03054468
   O      3.17847941      3.20116000      3.21078953

CRYSTAL
PRIMVEC         35
    6.34607605    0.00000000    0.00000000
    0.00000000    6.34607605    0.00000000
    0.00000000    0.00000000    6.34607605
PRIMCOORD       35
       3       1
   H      3.21999598      2.34381070      2.72749548
   H      4.11070243      3.59921571      3.02335766
   O      3.17894203      3.19833120      3.21046418

CRYSTAL
PRIMVEC         36
    6.34607605    0.00000000    0.00000000
    0.00000000    6.34607605    0.00000000
    0.00000000    0.00000000    6.34607605
PRIMCOORD       36
       3       1
   H      3.18960928      2.40092813      2.74073009
   H      4.11497793      3.58040309      3.01991950
   O      3.18059006      3.19591018      3.20984484

CRYSTAL
PRIMVEC         37
    6.34607605    0.00000000    0.00000000
    0.00000000    6.34607605    0.00000000
    0.00000000    0.00000000    6.34607605
PRIMCOORD       37
       3       1
   H      3.15789019      2.43349833      2.73883946
   H      4.10026532      3.55330159      3.02051192
   O      3.18351549      3.19556530      3.20992561

CRYSTAL
PRIMVEC         38
    6.34607605    0.00000000    0.00000000
    0.00000000    6.34607605    0.00000000
    0.00000000    0.00000000    6.34607605
PRIMCOORD       38
       3       1
   H      3.12377735      2.42377433      2.71108985
   H      4.07430651      3.52223599      3.02385436
   O      3.18730093      3.19812354      3.21146009

CRYSTAL
PRIMVEC         39
    6.34607605    0.00000000    0.00000000
    0.00000000    6.34607605    0.00000000
    0.00000000    0.00000000    6.34607605
PRIMCOORD       39
       3       1
   H      3.08612511      2.38934194      2.66709852
   H      4.05283007      3.49270052      3.02655895
   O      3.19102238      3.20214804      3.21406084

CRYSTAL
PRIMVEC         40
    6.34607605    0.00000000    0.00000000
    0.00000000    6.34607605    0.00000000
    0.00000000    0.00000000    6.34607605
PRIMCOORD       40
       3       1
   H      3.04736541      2.35761263      2.62389637
   H      4.05501049      3.47009353      3.02402650
   O      3.19331865      3.20556765      3.21694078

CRYSTAL
PRIMVEC         41
    6.34607605    0.00000000    0.00000000
    0.00000000    6.34607605    0.00000000
    0.00000000    0.00000000    6.34607605
PRIMCOORD       41
       3       1
   H      3.01484216      2.34822591      2.59702657
   H      4.08565065      3.45665814      3.01467782
   O      3.19342930      3.20699935      3.21922222

CRYSTAL
PRIMVEC         42
    6.34607605    0.00000000    0.00000000
    0.00000000    6.34607605    0.00000000
    0.00000000    0.00000000    6.34607605
PRIMCOORD       42
       3       1
   H      2.98769926      2.36591756      2.58813971
   H      4.13259753      3.44532490      3.00044168
   O      3.19217411      3.20659167      3.22068012

CRYSTAL
PRIMVEC         43
    6.34607605    0.00000000    0.00000000
    0.00000000    6.34607605    0.00000000
    0.00000000    0.00000000    6.34607605
PRIMCOORD       43
       3       1
   H      2.96870153      2.40842599      2.59754301
   H      4.17232233      3.43106409      2.98673064
   O      3.19086339      3.20480692      3.22095304

CRYSTAL
PRIMVEC         44
    6.34607605    0.00000000    0.00000000
    0.00000000    6.34607605    0.00000000
    0.00000000    0.00000000    6.34607605
PRIMCOORD       44
       3       1
   H      2.95601911      2.46789399      2.61950043
   H      4.19171208      3.41079852      2.97668247
   O      3.19043237      3.20233194      3.22020519

CRYSTAL
PRIMVEC         45
    6.34607605    0.00000000    0.00000000
    0.00000000    6.34607605    0.00000000
    0.00000000    0.00000000    6.34607605
PRIMCOORD       45
       3       1
   H      2.94521177      2.52364722      2.63947698
   H      4.18486406      3.38562708      2.97250522
   O      3.19153809      3.20039828      3.21921131

CRYSTAL
PRIMVEC         46
    6.34607605    0.00000000    0.00000000
    0.00000000    6.34607605    0.00000000
    0.00000000    0.00000000    6.34607605
PRIMCOORD       46
       3       1
   H      2.92701851      2.55823104      2.64082322
   H      4.15426969      3.35553140      2.97383706
   O      3.19460605      3.20011049      3.21904192

CRYSTAL
PRIMVEC         47
    6.34607605    0.00000000    0.00000000
    0.00000000    6.34607605    0.00000000
    0.00000000    0.00000000    6.34607605
PRIMCOORD       47
       3       1
   H      2.89527008      2.56252584      2.61443486
   H      4.11115115      3.32317879      2.97847862
   O      3.19931520      3.20187019      3.22041041

CRYSTAL
PRIMVEC         48
    6.34607605    0.00000000    0.00000000
    0.00000000    6.34607605    0.00000000
    0.00000000    0.00000000    6.34607605
PRIMCOORD       48
       3       1
   H      2.85757845      2.55086822      2.57544927
   H      4.08242875      3.29518019      2.98048410
   O      3.20349482      3.20435947      3.22274071

CRYSTAL
PRIMVEC         49
    6.34607605    0.00000000    0.00000000
    0.00000000    6.34607605    0.00000000
    0.00000000    0.00000000    6.34607605
PRIMCOORD       49
       3       1
   H      2.82277401      2.54229501      2.54156563
   H      4.08762593      3.27283221      2.97417401
   O      3.20535002      3.20629968      3.22527514

CRYSTAL
PRIMVEC         50
    6.34607605    0.00000000    0.00000000
    0.00000000    6.34607605    0.00000000
    0.00000000    0.00000000    6.34607605
PRIMCOORD       50
       3       1
   H      2.79895154      2.54711178      2.52443044
   H      4.12191600      3.25553329      2.96040590
   O      3.20468443      3.20707859      3.22722316

CRYSTAL
PRIMVEC         51
    6.34607605    0.00000000    0.00000000
    0.00000000    6.34607605    0.00000000
    0.00000000    0.00000000    6.34607605
PRIMCOORD       51
       3       1
   H      2.78556803      2.56786253      2.52449191
   H      4.16630293      3.23890880      2.94360572
   O      3.20272867      3.20681205      3.22828075

CRYSTAL
PRIMVEC         52
    6.34607605    0.00000000    0.00000000
    0.00000000    6.34607605    0.00000000
    0.00000000    0.00000000    6.34607605
PRIMCOORD       52
       3       1
   H      2.78210117      2.60184081      2.53945989
   H      4.19882966      3.22198746      2.92991972
   O      3.20088641      3.20573110      3.22820461

CRYSTAL
PRIMVEC         53
    6.34607605    0.00000000    0.00000000
    0.00000000    6.34607605    0.00000000
    0.00000000    0.00000000    6.34607605
PRIMCOORD       53
       3       1
   H      2.78429741      2.63910549      2.56032287
   H      4.20634923      3.20610243      2.92363387
   O      3.20026550      3.20437981      3.22729024

CRYSTAL
PRIMVEC         54
    6.34607605    0.00000000    0.00000000
    0.00000000    6.34607605    0.00000000
    0.00000000    0.00000000    6.34607605
PRIMCOORD       54
       3       1
   H      2.78484981      2.67668214      2.57929461
   H      4.18766436      3.18854525      2.92465779
   O      3.20140029      3.20311112      3.22603351

CRYSTAL
PRIMVEC         55
    6.34607605    0.00000000    0.00000000
    0.00000000    6.34607605    0.00000000
    0.00000000    0.00000000    6.34607605
PRIMCOORD       55
       3       1
   H      2.77434821      2.69930292      2.58091393
   H      4.14936301      3.17210939      2.93210936
   O      3.20446664      3.20271636      3.22546762

CRYSTAL
PRIMVEC         56
    6.34607605    0.00000000    0.00000000
    0.00000000    6.34607605    0.00000000
    0.00000000    0.00000000    6.34607605
PRIMCOORD       56
       3       1
   H      2.75038155      2.70527596      2.56296917
   H      4.10722597      3.15732959      2.94184676
   O      3.20862083      3.20326534      3.22599169

CRYSTAL
PRIMVEC         57
    6.34607605    0.00000000    0.00000000
    0.00000000    6.34607605    0.00000000
    0.00000000    0.00000000    6.34607605
PRIMCOORD       57
       3       1
   H      2.72101307      2.70368793      2.53751470
   H      4.08461717      3.14382360      2.94681800
   O      3.21189183      3.20421127      3.22728447

CRYSTAL
PRIMVEC         58
    6.34607605    0.00000000    0.00000000
    0.00000000    6.34607605    0.00000000
    0.00000000    0.00000000    6.34607605
PRIMCOORD       58
       3       1
   H      2.69026477      2.70426743      2.51294459
   H      4.09279330      3.12733932      2.94255039
   O      3.21330825      3.20520775      3.22910503

CRYSTAL
PRIMVEC         59
    6.34607605    0.00000000    0.00000000
    0.00000000    6.34607605    0.00000000
    0.00000000    0.00000000    6.34607605
PRIMCOORD       59
       3       1
   H      2.66744425      2.71372863      2.49994956
   H      4.12741798      3.10792413      2.92969167
   O      3.21255986      3.20582873      3.23073891

CRYSTAL
PRIMVEC         60
    6.34607605    0.00000000    0.00000000
    0.00000000    6.34607605    0.00000000
    0.00000000    0.00000000    6.34607605
PRIMCOORD       60
       3       1
   H      2.65906695      2.73227479      2.50317254
   H      4.16233462      3.08973550      2.91626545
   O      3.21088178      3.20579932      3.23138997

CRYSTAL
PRIMVEC         61
    6.34607605    0.00000000    0.00000000
    0.00000000    6.34607605    0.00000000
    0.00000000    0.00000000    6.34607605
PRIMCOORD       61
       3       1
   H      2.66265054      2.75957557      2.51994621
   H      4.18425973      3.07257694      2.90599259
   O      3.20926425      3.20515372      3.23098921

CRYSTAL
PRIMVEC         62
    6.34607605    0.00000000    0.00000000
    0.00000000    6.34607605    0.00000000
    0.00000000    0.00000000    6.34607605
PRIMCOORD       62
       3       1
   H      2.67312786      2.79170396      2.54361712
   H      4.18478285      3.05727534      2.90153835
   O      3.20855951      3.20408583      3.22978469

CRYSTAL
PRIMVEC         63
    6.34607605    0.00000000    0.00000000
    0.00000000    6.34607605    0.00000000
    0.00000000    0.00000000    6.34607605
PRIMCOORD       63
       3       1
   H      2.67974834      2.81735337      2.55944148
   H      4.16330401      3.04636813      2.90405312
   O      3.20948587      3.20315030      3.22863427

CRYSTAL
PRIMVEC         64
    6.34607605    0.00000000    0.00000000
    0.00000000    6.34607605    0.00000000
    0.00000000    0.00000000    6.34607605
PRIMCOORD       64
       3       1
   H      2.67473862      2.83368476      2.55945491
   H      4.12517183      3.03820851      2.91188630
   O      3.21219557      3.20262910      3.22814457

CRYSTAL
PRIMVEC         65
    6.34607605    0.00000000    0.00000000
    0.00000000    6.34607605    0.00000000
    0.00000000    0.00000000    6.34607605
PRIMCOORD       65
       3       1
   H      2.65619454      2.84151449      2.54291868
   H      4.08334306      3.03029230      2.92102835
   O      3.21599408      3.20262738      3.22861511

CRYSTAL
PRIMVEC         66
    6.34607605    0.00000000    0.00000000
    0.00000000    6.34607605    0.00000000
    0.00000000    0.00000000    6.34607605
PRIMCOORD       66
       3       1
   H      2.63190327      2.84585457      2.52001310
   H      4.06146373      3.01891360      2.92375159
   O      3.21889464      3.20306239      3.22988854

CRYSTAL
PRIMVEC         67
    6.34607605    0.00000000    0.00000000
    0.00000000    6.34607605    0.00000000
    0.00000000    0.00000000    6.34607605
PRIMCOORD       67
       3       1
   H      2.61062054      2.85265808      2.50148832
   H      4.07205426      3.00050113      2.91516486
   O      3.21956419      3.20378709      3.23160470

CRYSTAL
PRIMVEC         68
    6.34607605    0.00000000    0.00000000
    0.00000000    6.34607605    0.00000000
    0.00000000    0.00000000    6.34607605
PRIMCOORD       68
       3       1
   H      2.59798993      2.86549357      2.49363311
   H      4.10636355      2.97553919      2.89755335
   O      3.21819541      3.20454343      3.23321720

CRYSTAL
PRIMVEC         69
    6.34607605    0.00000000    0.00000000
    0.00000000    6.34607605    0.00000000
    0.00000000    0.00000000    6.34607605
PRIMCOORD       69
       3       1
   H      2.59686361      2.88484144      2.49877342
   H      4.14211281      2.94935291      2.87872085
   O      3.21601260      3.20496677      3.23408815

CRYSTAL
PRIMVEC         70
    6.34607605    0.00000000    0.00000000
    0.00000000    6.34607605    0.00000000
    0.00000000    0.00000000    6.34607605
PRIMCOORD       70
       3       1
   H      2.60516653      2.90711429      2.51324414
   H      4.15912094      2.92892397      2.86648385
   O      3.21441265      3.20484394      3.23395297

CRYSTAL
PRIMVEC         71
    6.34607605    0.00000000    0.00000000
    0.00000000    6.34607605    0.00000000
    0.00000000    0.00000000    6.34607605
PRIMCOORD       71
       3       1
   H      2.61732810      2.93056870      2.53077283
   H      4.15177905      2.91518195      2.86285315
   O      3.21410199      3.20422616      3.23308493

CRYSTAL
PRIMVEC         72
    6.34607605    0.00000000    0.00000000
    0.00000000    6.34607605    0.00000000
    0.00000000    0.00000000    6.34607605
PRIMCOORD       72
       3       1
   H      2.62525834      2.95241980      2.54249999
   H      4.11982906      2.90818780      2.86823822
   O      3.21561017      3.20328548      3.23201361

CRYSTAL
PRIMVEC         73
    6.34607605    0.00000000    0.00000000
    0.00000000    6.34607605    0.00000000
    0.00000000    0.00000000    6.34607605
PRIMCOORD       73
       3       1
   H      2.62123688      2.96862294      2.54031932
   H      4.07438842      2.90647885      2.87968053
   O      3.21872460      3.20236608      3.23143243

CRYSTAL
PRIMVEC         74
    6.34607605    0.00000000    0.00000000
    0.00000000    6.34607605    0.00000000
    0.00000000    0.00000000    6.34607605
PRIMCOORD       74
       3       1
   H      2.60431413      2.98253593      2.52486873
   H      4.02605190      2.90427584      2.89265898
   O      3.22283259      3.20161932      3.23159223

CRYSTAL
PRIMVEC         75
    6.34607605    0.00000000    0.00000000
    0.00000000    6.34607605    0.00000000
    0.00000000    0.00000000    6.34607605
PRIMCOORD       75
       3       1
   H      2.58174148      2.99673723      2.50532207
   H      4.00338809      2.89211969      2.89615140
   O      3.22568520      3.20148175      3.23261028

CRYSTAL
PRIMVEC         76
    6.34607605    0.00000000    0.00000000
    0.00000000    6.34607605    0.00000000
    0.00000000    0.00000000    6.34607605
PRIMCOORD       76
       3       1
   H      2.56357539      3.01298484      2.49251475
   H      4.02038874      2.86519300      2.88424638
   O      3.22575923      3.20214727      3.23417511

CRYSTAL
PRIMVEC         77
    6.34607605    0.00000000    0.00000000
    0.00000000    6.34607605    0.00000000
    0.00000000    0.00000000    6.34607605
PRIMCOORD       77
       3       1
   H      2.55499203      3.03217009      2.49115449
   H      4.05887344      2.82965635      2.86370269
   O      3.22387774      3.20316816      3.23556247

CRYSTAL
PRIMVEC         78
    6.34607605    0.00000000    0.00000000
    0.00000000    6.34607605    0.00000000
    0.00000000    0.00000000    6.34607605
PRIMCOORD       78
       3       1
   H      2.55699631      3.05338276      2.50094263
   H      4.09252177      2.79656312      2.84507074
   O      3.22162669      3.20390983      3.23612833

CRYSTAL
PRIMVEC         79
    6.34607605    0.00000000    0.00000000
    0.00000000    6.34607605    0.00000000
    0.00000000    0.00000000    6.34607605
PRIMCOORD       79
       3       1
   H      2.56671633      3.07657846      2.51823953
   H      4.10743978      2.77113883      2.83375012
   O      3.22007071      3.20404370      3.23576151

CRYSTAL
PRIMVEC         80
    6.34607605    0.00000000    0.00000000
    0.00000000    6.34607605    0.00000000
    0.00000000    0.00000000    6.34607605
PRIMCOORD       80
       3       1
   H      2.57692528      3.09829458      2.53408542
   H      4.09612061      2.75871132      2.83334773
   O      3.22013762      3.20345006      3.23479629

CRYSTAL
PRIMVEC         81
    6.34607605    0.00000000    0.00000000
    0.00000000    6.34607605    0.00000000
    0.00000000    0.00000000    6.34607605
PRIMCOORD       81
       3       1
   H      2.58076009      3.11800493      2.54124775
   H      4.05996265      2.75867338      2.84335239
   O      3.22217194      3.20220184      3.23372162

CRYSTAL
PRIMVEC         82
    6.34607605    0.00000000    0.00000000
    0.00000000    6.34607605    0.00000000
    0.00000000    0.00000000    6.34607605
PRIMCOORD       82
       3       1
   H      2.57482769      3.13729997      2.53697065
   H      4.00443713      2.76725177      2.86123539
   O      3.22603993      3.20043702      3.23287230

CRYSTAL
PRIMVEC         83
    6.34607605    0.00000000    0.00000000
    0.00000000    6.34607605    0.00000000
    0.00000000    0.00000000    6.34607605
PRIMCOORD       83
       3       1
   H      2.56196745      3.15601722      2.52518848
   H      3.95286129      2.77361893      2.87728571
   O      3.23010196      3.19884875      3.23260882

CRYSTAL
PRIMVEC         84
    6.34607605    0.00000000    0.00000000
    0.00000000    6.34607605    0.00000000
    0.00000000    0.00000000    6.34607605
PRIMCOORD       84
       3       1
   H      2.54802161      3.17610528      2.51301698
   H      3.92967399      2.76214370      2.87950045
   O      3.23243854      3.19829797      3.23324153

CRYSTAL
PRIMVEC         85
    6.34607605    0.00000000    0.00000000
    0.00000000    6.34607605    0.00000000
    0.00000000    0.00000000    6.34607605
PRIMCOORD       85
       3       1
   H      2.54025056      3.19594619      2.50792907
   H      3.94589603      2.72713595      2.86265748
   O      3.23190716      3.19924268      3.23462985

CRYSTAL
PRIMVEC         86
    6.34607605    0.00000000    0.00000000
    0.00000000    6.34607605    0.00000000
    0.00000000    0.00000000    6.34607605
PRIMCOORD       86
       3       1
   H      2.54073064      3.21683704      2.51153939
   H      3.98112657      2.67813439      2.83522987
   O      3.22965529      3.20100619      3.23613950

CRYSTAL
PRIMVEC         87
    6.34607605    0.00000000    0.00000000
    0.00000000    6.34607605    0.00000000
    0.00000000    0.00000000    6.34607605
PRIMCOORD       87
       3       1
   H      2.54872772      3.23735961      2.52189381
   H      4.00888681      2.63350908      2.81058124
   O      3.22740309      3.20251620      3.23704887

CRYSTAL
PRIMVEC         88
    6.34607605    0.00000000    0.00000000
    0.00000000    6.34607605    0.00000000
    0.00000000    0.00000000    6.34607605
PRIMCOORD       88
       3       1
   H      2.55984110      3.25632978      2.53359004
   H      4.01433172      2.60522596      2.79688118
   O      3.22635991      3.20309544      3.23718419

CRYSTAL
PRIMVEC         89
    6.34607605    0.00000000    0.00000000
    0.00000000    6.34607605    0.00000000
    0.00000000    0.00000000    6.34607605
PRIMCOORD       89
       3       1
   H      2.56952282      3.27510735      2.54158717
   H      3.99342327      2.59555371      2.79586586
   O      3.22706556      3.20251565      3.23675153

CRYSTAL
PRIMVEC         90
    6.34607605    0.00000000    0.00000000
    0.00000000    6.34607605    0.00000000
    0.00000000    0.00000000    6.34607605
PRIMCOORD       90
       3       1
   H      2.57429934      3.29551287      2.54225748
   H      3.94558851      2.60421163      2.80766585
   O      3.22977918      3.20067771      3.23597291

CRYSTAL
PRIMVEC         91
    6.34607605    0.00000000    0.00000000
    0.00000000    6.34607605    0.00000000
    0.00000000    0.00000000    6.34607605
PRIMCOORD       91
       3       1
   H      2.57316464      3.31495661      2.53614450
   H      3.88776570      2.62317721      2.82600910
   O      3.23349478      3.19825026      3.23520944

CRYSTAL
PRIMVEC         92
    6.34607605    0.00000000    0.00000000
    0.00000000    6.34607605    0.00000000
    0.00000000    0.00000000    6.34607605
PRIMCOORD       92
       3       1
   H      2.56959945      3.33429098      2.52799064
   H      3.83683939      2.63748892      2.84120727
   O      3.23693286      3.19612164      3.23477361

CRYSTAL
PRIMVEC         93
    6.34607605    0.00000000    0.00000000
    0.00000000    6.34607605    0.00000000
    0.00000000    0.00000000    6.34607605
PRIMCOORD       93
       3       1
   H      2.56755180      3.35457154      2.52266498
   H      3.81123911      2.62761932      2.84072930
   O      3.23867478      3.19545768      3.23514775

CRYSTAL
PRIMVEC         94
    6.34607605    0.00000000    0.00000000
    0.00000000    6.34607605    0.00000000
    0.00000000    0.00000000    6.34607605
PRIMCOORD       94
       3       1
   H      2.56989215      3.37582279      2.52349066
   H      3.81685758      2.58555270      2.81974323
   O      3.23817900      3.19676347      3.23642673

CRYSTAL
PRIMVEC         95
    6.34607605    0.00000000    0.00000000
    0.00000000    6.34607605    0.00000000
    0.00000000    0.00000000    6.34607605
PRIMCOORD       95
       3       1
   H      2.57642155      3.39397435      2.52997097
   H      3.83398084      2.53595193      2.79360702
   O      3.23669281      3.19873895      3.23767358

CRYSTAL
PRIMVEC         96
    6.34607605    0.00000000    0.00000000
    0.00000000    6.34607605    0.00000000
    0.00000000    0.00000000    6.34607605
PRIMCOORD       96
       3       1
   H      2.58584022      3.41140107      2.53973958
   H      3.84608536      2.49198537      2.77145490
   O      3.23534011      3.20040275      3.23846170

CRYSTAL
PRIMVEC         97
    6.34607605    0.00000000    0.00000000
    0.00000000    6.34607605    0.00000000
    0.00000000    0.00000000    6.34607605
PRIMCOORD       97
       3       1
   H      2.59545883      3.42950000      2.54911668
   H      3.84340270      2.46355682      2.75946244
   O      3.23490816      3.20104567      3.23863397

CRYSTAL
PRIMVEC         98
    6.34607605    0.00000000    0.00000000
    0.00000000    6.34607605    0.00000000
    0.00000000    0.00000000    6.34607605
PRIMCOORD       98
       3       1
   H      2.60089448      3.44591844      2.55318395
   H      3.82382423      2.45926665      2.76168797
   O      3.23580365      3.20027260      3.23824600

CRYSTAL
PRIMVEC         99
    6.34607605    0.00000000    0.00000000
    0.00000000    6.34607605    0.00000000
    0.00000000    0.00000000    6.34607605
PRIMCOORD       99
       3       1
   H      2.60287603      3.46429188      2.55241421
   H      3.78610643      2.47574242      2.77683379
   O      3.23806111      3.19806730      3.23734752

CRYSTAL
PRIMVEC        100
    6.34607605    0.00000000    0.00000000
    0.00000000    6.34607605    0.00000000
    0.00000000    0.00000000    6.34607605
PRIMCOORD      100
       3       1
   H      2.60317035      3.48227828      2.54937796
   H      3.74129717      2.50291465      2.79818094
   O      3.24087231      3.19521586      3.23620195

CRYSTAL
PRIMVEC        101
    6.34607605    0.00000000    0.00000000
    0.00000000    6.34607605    0.00000000
    0.00000000    0.00000000    6.34607605
PRIMCOORD      101
       3       1
   H      2.60479683      3.49942173      2.54784081
   H      3.70167293      2.52373455      2.81554819
   O      3.24327422      3.19281787      3.23521101

CRYSTAL
PRIMVEC        102
    6.34607605    0.00000000    0.00000000
    0.00000000    6.34607605    0.00000000
    0.00000000    0.00000000    6.34607605
PRIMCOORD      102
       3       1
   H      2.61010876      3.51621965      2.55063580
   H      3.67913671      2.51805053      2.81731146
   O      3.24436972      3.19211094      3.23493207

CRYSTAL
PRIMVEC        103
    6.34607605    0.00000000    0.00000000
    0.00000000    6.34607605    0.00000000
    0.00000000    0.00000000    6.34607605
PRIMCOORD      103
       3       1
   H      2.61980795      3.53304677      2.55855985
   H      3.67665229      2.47807120      2.79919016
   O      3.24392502      3.19356212      3.23558208

CRYSTAL
PRIMVEC        104
    6.34607605    0.00000000    0.00000000
    0.00000000    6.34607605    0.00000000
    0.00000000    0.00000000    6.34607605
PRIMCOORD      104
       3       1
   H      2.63306039      3.55183267      2.57004557
   H      3.68238829      2.41703376      2.76951625
   O      3.24273415      3.19621701      3.23673477

CRYSTAL
PRIMVEC        105
    6.34607605    0.00000000    0.00000000
    0.00000000    6.34607605    0.00000000
    0.00000000    0.00000000    6.34607605
PRIMCOORD      105
       3       1
   H      2.64435907      3.57055257      2.57874701
   H      3.68162695      2.36844040      2.74638836
   O      3.24207703      3.19808981      3.23764956

CRYSTAL
PRIMVEC        106
    6.34607605    0.00000000    0.00000000
    0.00000000    6.34607605    0.00000000
    0.00000000    0.00000000    6.34607605
PRIMCOORD      106
       3       1
   H      2.65175452      3.59031488      2.58177214
   H      3.66798089      2.34406152      2.73609519
   O      3.24247625      3.19837398      3.23811566

CRYSTAL
PRIMVEC        107
    6.34607605    0.00000000    0.00000000
    0.00000000    6.34607605    0.00000000
    0.00000000    0.00000000    6.34607605
PRIMCOORD      107
       3       1
   H      2.65675240      3.61391526      2.57946491
   H      3.63702414      2.34550787      2.73970574
   O      3.24411615      3.19678756      3.23804199

CRYSTAL
PRIMVEC        108
    6.34607605    0.00000000    0.00000000
    0.00000000    6.34607605    0.00000000
    0.00000000    0.00000000    6.34607605
PRIMCOORD      108
       3       1
   H      2.66149516      3.63605418      2.57526905
   H      3.59461839      2.37118782      2.75572731
   O      3.24649250      3.19376536      3.23730526

CRYSTAL
PRIMVEC        109
    6.34607605    0.00000000    0.00000000
    0.00000000    6.34607605    0.00000000
    0.00000000    0.00000000    6.34607605
PRIMCOORD      109
       3       1
   H      2.66922984      3.65410425      2.57355734
   H      3.54774503      2.40889243      2.77734808
   O      3.24896546      3.19024500      3.23605866

CRYSTAL
PRIMVEC        110
    6.34607605    0.00000000    0.00000000
    0.00000000    6.34607605    0.00000000
    0.00000000    0.00000000    6.34607605
PRIMCOORD      110
       3       1
   H      2.68261166      3.66841266      2.57732599
   H      3.50185370      2.43924717      2.79402154
   O      3.25102035      3.18742279      3.23477829

CRYSTAL
PRIMVEC        111
    6.34607605    0.00000000    0.00000000
    0.00000000    6.34607605    0.00000000
    0.00000000    0.00000000    6.34607605
PRIMCOORD      111
       3       1
   H      2.70047168      3.67865820      2.58695711
   H      3.46916418      2.43314168      2.78984944
   O      3.25196253      3.18715182      3.23444305

CRYSTAL
PRIMVEC        112
    6.34607605    0.00000000    0.00000000
    0.00000000    6.34607605    0.00000000
    0.00000000    0.00000000    6.34607605
PRIMCOORD      112
       3       1
   H      2.71951622      3.68745094      2.59931127
   H      3.44903433      2.39002812      2.76506407
   O      3.25203885      3.18930594      3.23523411

CRYSTAL
PRIMVEC        113
    6.34607605    0.00000000    0.00000000
    0.00000000    6.34607605    0.00000000
    0.00000000    0.00000000    6.34607605
PRIMCOORD      113
       3       1
   H      2.73686091      3.69924719      2.61004970
   H      3.43179401      2.33291771      2.73291523
   O      3.25203829      3.19215778      3.23659131

CRYSTAL
PRIMVEC        114
    6.34607605    0.00000000    0.00000000
    0.00000000    6.34607605    0.00000000
    0.00000000    0.00000000    6.34607605
PRIMCOORD      114
       3       1
   H      2.74832827      3.71638650      2.61405385
   H      3.41231566      2.28918468      2.70875572
   O      3.25254877      3.19382513      3.23787197

CRYSTAL
PRIMVEC        115
    6.34607605    0.00000000    0.00000000
    0.00000000    6.34607605    0.00000000
    0.00000000    0.00000000    6.34607605
PRIMCOORD      115
       3       1
   H      2.75408476      3.73854505      2.61084979
   H      3.38836067      2.27119943      2.69907498
   O      3.25370025      3.19355479      3.23869548

CRYSTAL
PRIMVEC        116
    6.34607605    0.00000000    0.00000000
    0.00000000    6.34607605    0.00000000
    0.00000000    0.00000000    6.34607605
PRIMCOORD      116
       3       1
   H      2.75728957      3.76099838      2.60442210
   H      3.36121385      2.28242844      2.70547934
   O      3.25521424      3.19142502      3.23870687

CRYSTAL
PRIMVEC        117
    6.34607605    0.00000000    0.00000000
    0.00000000    6.34607605    0.00000000
    0.00000000    0.00000000    6.34607605
PRIMCOORD      117
       3       1
   H      2.76245170      3.78095283      2.59958585
   H      3.32993979      2.31957761      2.72604285
   O      3.25686555      3.18782041      3.23772489

CRYSTAL
PRIMVEC        118
    6.34607605    0.00000000    0.00000000
    0.00000000    6.34607605    0.00000000
    0.00000000    0.00000000    6.34607605
PRIMCOORD      118
       3       1
   H      2.77307687      3.79532357      2.60086796
   H      3.29550312      2.37136699      2.75459251
   O      3.25837020      3.18364600      3.23585572

CRYSTAL
PRIMVEC        119
    6.34607605    0.00000000    0.00000000
    0.00000000    6.34607605    0.00000000
    0.00000000    0.00000000    6.34607605
PRIMCOORD      119
       3       1
   H      2.78957952      3.80186315      2.61043940
   H      3.26267520      2.40768621      2.77434860
   O      3.25940259      3.18094301      3.23401610

CRYSTAL
PRIMVEC        120
    6.34607605    0.00000000    0.00000000
    0.00000000    6.34607605    0.00000000
    0.00000000    0.00000000    6.34607605
PRIMCOORD      120
       3       1
   H      2.81165957      3.80327091      2.62768019
   H      3.22942138      2.40362858      2.77142160
   O      3.26011179      3.18110800      3.23311928

CRYSTAL
PRIMVEC        121
    6.34607605    0.00000000    0.00000000
    0.00000000    6.34607605    0.00000000
    0.00000000    0.00000000    6.34607605
PRIMCOORD      121
       3       1
   H      2.83389434      3.80518072      2.64623061
   H      3.19647547      2.36251050      2.74827584
   O      3.26079221      3.18357710      3.23341356

CRYSTAL
PRIMVEC        122
    6.34607605    0.00000000    0.00000000
    0.00000000    6.34607605    0.00000000
    0.00000000    0.00000000    6.34607605
PRIMCOORD      122
       3       1
   H      2.85173584      3.81457658      2.65919394
   H      3.16347782      2.31227606      2.72091680
   O      3.26175143      3.18614854      3.23432388

CRYSTAL
PRIMVEC        123
    6.34607605    0.00000000    0.00000000
    0.00000000    6.34607605    0.00000000
    0.00000000    0.00000000    6.34607605
PRIMCOORD      123
       3       1
   H      2.86169227      3.83440560      2.66167550
   H      3.13363345      2.27869446      2.70338653
   O      3.26300735      3.18701296      3.23527777

CRYSTAL
PRIMVEC        124
    6.34607605    0.00000000    0.00000000
    0.00000000    6.34607605    0.00000000
    0.00000000    0.00000000    6.34607605
PRIMCOORD      124
       3       1
   H      2.86610397      3.86194423      2.65592589
   H      3.10699032      2.27104778      2.70013083
   O      3.26440991      3.18575307      3.23584959

CRYSTAL
PRIMVEC        125
    6.34607605    0.00000000    0.00000000
    0.00000000    6.34607605    0.00000000
    0.00000000    0.00000000    6.34607605
PRIMCOORD      125
       3       1
   H      2.86906696      3.88611013      2.64900943
   H      3.08712227      2.29104573      2.71146134
   O      3.26547658      3.18296368      3.23557756

CRYSTAL
PRIMVEC        126
    6.34607605    0.00000000    0.00000000
    0.00000000    6.34607605    0.00000000
    0.00000000    0.00000000    6.34607605
PRIMCOORD      126
       3       1
   H      2.87488246      3.90307295      2.64589537
   H      3.07097278      2.33457842      2.73491550
   O      3.26612811      3.17914954      3.23430233

CRYSTAL
PRIMVEC        127
    6.34607605    0.00000000    0.00000000
    0.00000000    6.34607605    0.00000000
    0.00000000    0.00000000    6.34607605
PRIMCOORD      127
       3       1
   H      2.88500055      3.90774511      2.65019853
   H      3.05774940      2.38233840      2.75990552
   O      3.26632396      3.17584131      3.23246114

CRYSTAL
PRIMVEC        128
    6.34607605    0.00000000    0.00000000
    0.00000000    6.34607605    0.00000000
    0.00000000    0.00000000    6.34607605
PRIMCOORD      128
       3       1
   H      2.89985256      3.90168330      2.66214479
   H      3.04158110      2.41573335      2.77593831
   O      3.26640789      3.17412345      3.23070205

CRYSTAL
PRIMVEC        129
    6.34607605    0.00000000    0.00000000
    0.00000000    6.34607605    0.00000000
    0.00000000    0.00000000    6.34607605
PRIMCOORD      129
       3       1
   H      2.91735820      3.89010574      2.67866873
   H      3.01729007      2.41726821      2.77350033
   O      3.26683849      3.17475702      3.22981707

CRYSTAL
PRIMVEC        130
    6.34607605    0.00000000    0.00000000
    0.00000000    6.34607605    0.00000000
    0.00000000    0.00000000    6.34607605
PRIMCOORD      130
       3       1
   H      2.93392459      3.88153639      2.69394957
   H      2.98500556      2.39159959      2.75578583
   O      3.26783117      3.17691328      3.22997495

CRYSTAL
PRIMVEC        131
    6.34607605    0.00000000    0.00000000
    0.00000000    6.34607605    0.00000000
    0.00000000    0.00000000    6.34607605
PRIMCOORD      131
       3       1
   H      2.94616302      3.88475935      2.70174733
   H      2.94893671      2.35769853      2.73379999
   O      3.26933181      3.17884838      3.23087446

CRYSTAL
PRIMVEC        132
    6.34607605    0.00000000    0.00000000
    0.00000000    6.34607605    0.00000000
    0.00000000    0.00000000    6.34607605
PRIMCOORD      132
       3       1
   H      2.95184762      3.90329872      2.69853849
   H      2.91675326      2.33517580      2.71881080
   O      3.27100127      3.17909699      3.23202786

CRYSTAL
PRIMVEC        133
    6.34607605    0.00000000    0.00000000
    0.00000000    6.34607605    0.00000000
    0.00000000    0.00000000    6.34607605
PRIMCOORD      133
       3       1
   H      2.95314480      3.92975940      2.68851400
   H      2.89422004      2.33487100      2.71678263
   O      3.27233913      3.17744780      3.23279531

CRYSTAL
PRIMVEC        134
    6.34607605    0.00000000    0.00000000
    0.00000000    6.34607605    0.00000000
    0.00000000    0.00000000    6.34607605
PRIMCOORD      134
       3       1
   H      2.95445222      3.95433029      2.67860986
   H      2.88148468      2.35805619      2.72807959
   O      3.27305877      3.17443618      3.23271456

CRYSTAL
PRIMVEC        135
    6.34607605    0.00000000    0.00000000
    0.00000000    6.34607605    0.00000000
    0.00000000    0.00000000    6.34607605
PRIMCOORD      135
       3       1
   H      2.95916544      3.96800967      2.67504861
   H      2.87693011      2.39881675      2.74919600
   O      3.27304730      3.17100328      3.23161370

CRYSTAL
PRIMVEC        136
    6.34607605    0.00000000    0.00000000
    0.00000000    6.34607605    0.00000000
    0.00000000    0.00000000    6.34607605
PRIMCOORD      136
       3       1
   H      2.96885299      3.96726640      2.68074456
   H      2.87482117      2.44401748      2.77254183
   O      3.27256688      3.16820395      3.22978948

CRYSTAL
PRIMVEC        137
    6.34607605    0.00000000    0.00000000
    0.00000000    6.34607605    0.00000000
    0.00000000    0.00000000    6.34607605
PRIMCOORD      137
       3       1
   H      2.98371969      3.95375486      2.69556851
   H      2.86550830      2.47602626      2.78794205
   O      3.27221556      3.16703619      3.22789036

CRYSTAL
PRIMVEC        138
    6.34607605    0.00000000    0.00000000
    0.00000000    6.34607605    0.00000000
    0.00000000    0.00000000    6.34607605
PRIMCOORD      138
       3       1
   H      3.00074827      3.93566243      2.71453531
   H      2.84159484      2.47910376      2.78668038
   O      3.27264865      3.16798591      3.22678063

CRYSTAL
PRIMVEC        139
    6.34607605    0.00000000    0.00000000
    0.00000000    6.34607605    0.00000000
    0.00000000    0.00000000    6.34607605
PRIMCOORD      139
       3       1
   H      3.01772715      3.92314552      2.73203215
   H      2.80338425      2.45884703      2.77247284
   O      3.27398409      3.17005309      3.22657914

CRYSTAL
PRIMVEC        140
    6.34607605    0.00000000    0.00000000
    0.00000000    6.34607605    0.00000000
    0.00000000    0.00000000    6.34607605
PRIMCOORD      140
       3       1
   H      3.03024492      3.92848887      2.73964739
   H      2.76245647      2.43356691      2.75670126
   O      3.27577480      3.17131023      3.22709881

CRYSTAL
PRIMVEC        141
    6.34607605    0.00000000    0.00000000
    0.00000000    6.34607605    0.00000000
    0.00000000    0.00000000    6.34607605
PRIMCOORD      141
       3       1
   H      3.03600867      3.95192291      2.73507454
   H      2.73336226      2.42134224      2.74980474
   O      3.27724302      3.17060017      3.22782489

CRYSTAL
PRIMVEC        142
    6.34607605    0.00000000    0.00000000
    0.00000000    6.34607605    0.00000000
    0.00000000    0.00000000    6.34607605
PRIMCOORD      142
       3       1
   H      3.03858875      3.98414076      2.72440322
   H      2.71739802      2.42712520      2.75397726
   O      3.27808630      3.16820429      3.22823888

CRYSTAL
PRIMVEC        143
    6.34607605    0.00000000    0.00000000
    0.00000000    6.34607605    0.00000000
    0.00000000    0.00000000    6.34607605
PRIMCOORD      143
       3       1
   H      3.04198360      4.01505811      2.71447054
   H      2.71340261      2.45255010      2.76965635
   O      3.27812398      3.16465632      3.22788041

CRYSTAL
PRIMVEC        144
    6.34607605    0.00000000    0.00000000
    0.00000000    6.34607605    0.00000000
    0.00000000    0.00000000    6.34607605
PRIMCOORD      144
       3       1
   H      3.04882767      4.03143684      2.71248323
   H      2.71795689      2.49086316      2.79230472
   O      3.27740515      3.16121436      3.22658474

CRYSTAL
PRIMVEC        145
    6.34607605    0.00000000    0.00000000
    0.00000000    6.34607605    0.00000000
    0.00000000    0.00000000    6.34607605
PRIMCOORD      145
       3       1
   H      3.05963118      4.02777453      2.72112573
   H      2.72116604      2.52668603      2.81244689
   O      3.27652100      3.15919275      3.22477750

CRYSTAL
PRIMVEC        146
    6.34607605    0.00000000    0.00000000
    0.00000000    6.34607605    0.00000000
    0.00000000    0.00000000    6.34607605
PRIMCOORD      146
       3       1
   H      3.07389367      4.00739691      2.73892226
   H      2.71180925      2.54674869      2.82219273
   O      3.27621205      3.15921870      3.22304979

CRYSTAL
PRIMVEC        147
    6.34607605    0.00000000    0.00000000
    0.00000000    6.34607605    0.00000000
    0.00000000    0.00000000    6.34607605
PRIMCOORD      147
       3       1
   H      3.08990996      3.97983863      2.76094971
   H      2.68543541      2.54683046      2.81946679
   O      3.27686359      3.16095814      3.22183603

CRYSTAL
PRIMVEC        148
    6.34607605    0.00000000    0.00000000
    0.00000000    6.34607605    0.00000000
    0.00000000    0.00000000    6.34607605
PRIMCOORD      148
       3       1
   H      3.10671242      3.95704178      2.78171956
   H      2.64473119      2.53446120      2.80917182
   O      3.27836799      3.16317698      3.22117882

CRYSTAL
PRIMVEC        149
    6.34607605    0.00000000    0.00000000
    0.00000000    6.34607605    0.00000000
    0.00000000    0.00000000    6.34607605
PRIMCOORD      149
       3       1
   H      3.11828865      3.96001979      2.78853952
   H      2.60729465      2.52430110      2.80105934
   O      3.27999284      3.16363021      3.22126361

CRYSTAL
PRIMVEC        150
    6.34607605    0.00000000    0.00000000
    0.00000000    6.34607605    0.00000000
    0.00000000    0.00000000    6.34607605
PRIMCOORD      150
       3       1
   H      3.12338855      3.98872459      2.78044119
   H      2.58490363      2.52590398      2.80076831
   O      3.28108002      3.16172353      3.22179440

CRYSTAL
PRIMVEC        151
    6.34607605    0.00000000    0.00000000
    0.00000000    6.34607605    0.00000000
    0.00000000    0.00000000    6.34607605
PRIMCOORD      151
       3       1
   H      3.12585874      4.03022212      2.76520531
   H      2.57654840      2.54193812      2.80921449
   O      3.28144788      3.15810225      3.22222609

CRYSTAL
PRIMVEC        152
    6.34607605    0.00000000    0.00000000
    0.00000000    6.34607605    0.00000000
    0.00000000    0.00000000    6.34607605
PRIMCOORD      152
       3       1
   H      3.12887797      4.06462383      2.75287178
   H      2.58043441      2.57044302      2.82470283
   O      3.28101005      3.15414461      3.22202933

CRYSTAL
PRIMVEC        153
    6.34607605    0.00000000    0.00000000
    0.00000000    6.34607605    0.00000000
    0.00000000    0.00000000    6.34607605
PRIMCOORD      153
       3       1
   H      3.13450978      4.07978888      2.74975209
   H      2.58930550      2.60545679      2.84306599
   O      3.28009320      3.15098682      3.22107110

CRYSTAL
PRIMVEC        154
    6.34607605    0.00000000    0.00000000
    0.00000000    6.34607605    0.00000000
    0.00000000    0.00000000    6.34607605
PRIMCOORD      154
       3       1
   H      3.14354753      4.07050576      2.75856609
   H      2.59075905      2.63593988      2.85729692
   O      3.27943012      3.14965723      3.21962150

CRYSTAL
PRIMVEC        155
    6.34607605    0.00000000    0.00000000
    0.00000000    6.34607605    0.00000000
    0.00000000    0.00000000    6.34607605
PRIMCOORD      155
       3       1
   H      3.15475405      4.04195982      2.77660821
   H      2.57481732      2.65047217      2.86104048
   O      3.27972712      3.15054364      3.21824926

CRYSTAL
PRIMVEC        156
    6.34607605    0.00000000    0.00000000
    0.00000000    6.34607605    0.00000000
    0.00000000    0.00000000    6.34607605
PRIMCOORD      156
       3       1
   H      3.16917980      4.00067956      2.80180595
   H      2.54005559      2.65289214      2.85660026
   O      3.28100642      3.15299587      3.21693934

CRYSTAL
PRIMVEC        157
    6.34607605    0.00000000    0.00000000
    0.00000000    6.34607605    0.00000000
    0.00000000    0.00000000    6.34607605
PRIMCOORD      157
       3       1
   H      3.18326887      3.97189265      2.82190875
   H      2.50101245      2.65094373      2.85065677
   O      3.28257003      3.15493646      3.21604698

CRYSTAL
PRIMVEC        158
    6.34607605    0.00000000    0.00000000
    0.00000000    6.34607605    0.00000000
    0.00000000    0.00000000    6.34607605
PRIMCOORD      158
       3       1
   H      3.19390156      3.97792169      2.82580624
   H      2.47251310      2.65302257      2.84946117
   O      3.28369523      3.15442750      3.21587707

CRYSTAL
PRIMVEC        159
    6.34607605    0.00000000    0.00000000
    0.00000000    6.34607605    0.00000000
    0.00000000    0.00000000    6.34607605
PRIMCOORD      159
       3       1
   H      3.20277385      4.01829221      2.81467547
   H      2.45706620      2.66400207      2.85558414
   O      3.28410512      3.15119548      3.21619199

CRYSTAL
PRIMVEC        160
    6.34607605    0.00000000    0.00000000
    0.00000000    6.34607605    0.00000000
    0.00000000    0.00000000    6.34607605
PRIMCOORD      160
       3       1
   H      3.21028343      4.06344862      2.80085070
   H      2.45779486      2.68277114      2.86774447
   O      3.28357956      3.14717484      3.21629802

CRYSTAL
PRIMVEC        161
    6.34607605    0.00000000    0.00000000
    0.00000000    6.34607605    0.00000000
    0.00000000    0.00000000    6.34607605
PRIMCOORD      161
       3       1
   H      3.21835522      4.09637634      2.79226335
   H      2.46910380      2.70782953      2.88413212
   O      3.28235283      3.14352761      3.21580638

CRYSTAL
PRIMVEC        162
    6.34607605    0.00000000    0.00000000
    0.00000000    6.34607605    0.00000000
    0.00000000    0.00000000    6.34607605
PRIMCOORD      162
       3       1
   H      3.22782013      4.10701646      2.79349719
   H      2.48135077      2.73463398      2.90107250
   O      3.28098109      3.14117542      3.21466201

CRYSTAL
PRIMVEC        163
    6.34607605    0.00000000    0.00000000
    0.00000000    6.34607605    0.00000000
    0.00000000    0.00000000    6.34607605
PRIMCOORD      163
       3       1
   H      3.23919313      4.09160838      2.80637645
   H      2.48188410      2.75730552      2.91415890
   O      3.28022851      3.14072412      3.21302621

CRYSTAL
PRIMVEC        164
    6.34607605    0.00000000    0.00000000
    0.00000000    6.34607605    0.00000000
    0.00000000    0.00000000    6.34607605
PRIMCOORD      164
       3       1
   H      3.25140991      4.05592232      2.82790153
   H      2.46287712      2.76996613      2.91975616
   O      3.28065479      3.14218120      3.21131643

CRYSTAL
PRIMVEC        165
    6.34607605    0.00000000    0.00000000
    0.00000000    6.34607605    0.00000000
    0.00000000    0.00000000    6.34607605
PRIMCOORD      165
       3       1
   H      3.26447546      4.01408150      2.85233071
   H      2.42959080      2.77540849      2.92054119
   O      3.28192584      3.14447768      3.20972700

CRYSTAL
PRIMVEC        166
    6.34607605    0.00000000    0.00000000
    0.00000000    6.34607605    0.00000000
    0.00000000    0.00000000    6.34607605
PRIMCOORD      166
       3       1
   H      3.27846580      3.98932376      2.87041778
   H      2.39445891      2.77966318      2.92145053
   O      3.28325293      3.14578029      3.20852704

CRYSTAL
PRIMVEC        167
    6.34607605    0.00000000    0.00000000
    0.00000000    6.34607605    0.00000000
    0.00000000    0.00000000    6.34607605
PRIMCOORD      167
       3       1
   H      3.29240324      4.00208747      2.87346810
   H      2.37145177      2.78759854      2.92607283
   O      3.28382111      3.14448138      3.20804053

CRYSTAL
PRIMVEC        168
    6.34607605    0.00000000    0.00000000
    0.00000000    6.34607605    0.00000000
    0.00000000    0.00000000    6.34607605
PRIMCOORD      168
       3       1
   H      3.30667642      4.04469879      2.86491827
   H      2.36460252      2.80196786      2.93569820
   O      3.28334976      3.14090050      3.20796896

CRYSTAL
PRIMVEC        169
    6.34607605    0.00000000    0.00000000
    0.00000000    6.34607605    0.00000000
    0.00000000    0.00000000    6.34607605
PRIMCOORD      169
       3       1
   H      3.31966633      4.08974964      2.85473450
   H      2.37249056      2.82187470      2.94891106
   O      3.28202789      3.13681127      3.20777322

CRYSTAL
PRIMVEC        170
    6.34607605    0.00000000    0.00000000
    0.00000000    6.34607605    0.00000000
    0.00000000    0.00000000    6.34607605
PRIMCOORD      170
       3       1
   H      3.33069292      4.11874402      2.84990934
   H      2.38771295      2.84528842      2.96356718
   O      3.28037056      3.13351450      3.20714996

CRYSTAL
PRIMVEC        171
    6.34607605    0.00000000    0.00000000
    0.00000000    6.34607605    0.00000000
    0.00000000    0.00000000    6.34607605
PRIMCOORD      171
       3       1
   H      3.33983125      4.12354744      2.85372889
   H      2.39968435      2.86995496      2.97738829
   O      3.27904104      3.13166416      3.20603391

CRYSTAL
PRIMVEC        172
    6.34607605    0.00000000    0.00000000
    0.00000000    6.34607605    0.00000000
    0.00000000    0.00000000    6.34607605
PRIMCOORD      172
       3       1
   H      3.34738195      4.10087837      2.86758400
   H      2.39638978      2.89306770      2.98792821
   O      3.27877437      3.13164016      3.20449100

CRYSTAL
PRIMVEC        173
    6.34607605    0.00000000    0.00000000
    0.00000000    6.34607605    0.00000000
    0.00000000    0.00000000    6.34607605
PRIMCOORD      173
       3       1
   H      3.35273982      4.06206333      2.88642023
   H      2.37547539      2.90907116      2.99292162
   O      3.27975398      3.13308085      3.20298441

CRYSTAL
PRIMVEC        174
    6.34607605    0.00000000    0.00000000
    0.00000000    6.34607605    0.00000000
    0.00000000    0.00000000    6.34607605
PRIMCOORD      174
       3       1
   H      3.35848382      4.01891127      2.90700606
   H      2.34388568      2.92230353      2.99585056
   O      3.28138120      3.13496691      3.20149827

CRYSTAL
PRIMVEC        175
    6.34607605    0.00000000    0.00000000
    0.00000000    6.34607605    0.00000000
    0.00000000    0.00000000    6.34607605
PRIMCOORD      175
       3       1
   H      3.36718013      3.99705280      2.92089072
   H      2.31559159      2.93534417      2.99991362
   O      3.28261116      3.13552856      3.20036399

CRYSTAL
PRIMVEC        176
    6.34607605    0.00000000    0.00000000
    0.00000000    6.34607605    0.00000000
    0.00000000    0.00000000    6.34607605
PRIMCOORD      176
       3       1
   H      3.38049058      4.01286488      2.92280913
   H      2.30096414      2.94994210      3.00697949
   O      3.28268952      3.13361962      3.19979318

CRYSTAL
PRIMVEC        177
    6.34607605    0.00000000    0.00000000
    0.00000000    6.34607605    0.00000000
    0.00000000    0.00000000    6.34607605
PRIMCOORD      177
       3       1
   H      3.39664402      4.05369799      2.91676893
   H      2.30314329      2.96621894      3.01702839
   O      3.28153251      3.13002899      3.19953721

CRYSTAL
PRIMVEC        178
    6.34607605    0.00000000    0.00000000
    0.00000000    6.34607605    0.00000000
    0.00000000    0.00000000    6.34607605
PRIMCOORD      178
       3       1
   H      3.41354996      4.09756560      2.90999630
   H      2.31850859      2.98496647      3.02983223
   O      3.27949655      3.12608251      3.19915321

CRYSTAL
PRIMVEC        179
    6.34607605    0.00000000    0.00000000
    0.00000000    6.34607605    0.00000000
    0.00000000    0.00000000    6.34607605
PRIMCOORD      179
       3       1
   H      3.42784029      4.12426066      2.90830169
   H      2.33724620      3.00434741      3.04319165
   O      3.27741207      3.12317880      3.19841480

CRYSTAL
PRIMVEC        180
    6.34607605    0.00000000    0.00000000
    0.00000000    6.34607605    0.00000000
    0.00000000    0.00000000    6.34607605
PRIMCOORD      180
       3       1
   H      3.43758736      4.12443561      2.91410051
   H      2.34657140      3.02225236      3.05464056
   O      3.27620462      3.12203882      3.19732358

CRYSTAL
PRIMVEC        181
    6.34607605    0.00000000    0.00000000
    0.00000000    6.34607605    0.00000000
    0.00000000    0.00000000    6.34607605
PRIMCOORD      181
       3       1
   H      3.44306899      4.09816003      2.92740356
   H      2.33911824      3.03826812      3.06351977
   O      3.27632400      3.12268447      3.19592128

CRYSTAL
PRIMVEC        182
    6.34607605    0.00000000    0.00000000
    0.00000000    6.34607605    0.00000000
    0.00000000    0.00000000    6.34607605
PRIMCOORD      182
       3       1
   H      3.44586395      4.05359479      2.94581877
   H      2.31762890      3.05249572      3.07058085
   O      3.27749510      3.12459549      3.19431042

CRYSTAL
PRIMVEC        183
    6.34607605    0.00000000    0.00000000
    0.00000000    6.34607605    0.00000000
    0.00000000    0.00000000    6.34607605
PRIMCOORD      183
       3       1
   H      3.45011314      4.00268639      2.96703649
   H      2.28979141      3.06757606      3.07852965
   O      3.27897734      3.12685124      3.19246734

CRYSTAL
PRIMVEC        184
    6.34607605    0.00000000    0.00000000
    0.00000000    6.34607605    0.00000000
    0.00000000    0.00000000    6.34607605
PRIMCOORD      184
       3       1
   H      3.46163906      3.98181860      2.98080121
   H      2.27144189      3.08220310      3.08798930
   O      3.27941009      3.12724747      3.19099772

CRYSTAL
PRIMVEC        185
    6.34607605    0.00000000    0.00000000
    0.00000000    6.34607605    0.00000000
    0.00000000    0.00000000    6.34607605
PRIMCOORD      185
       3       1
   H      3.48374798      4.00630710      2.98349352
   H      2.26947495      3.09653356      3.09929957
   O      3.27814090      3.12480061      3.19011143

CRYSTAL
PRIMVEC        186
    6.34607605    0.00000000    0.00000000
    0.00000000    6.34607605    0.00000000
    0.00000000    0.00000000    6.34607605
PRIMCOORD      186
       3       1
   H      3.51249395      4.05697111      2.98028402
   H      2.28328269      3.11133619      3.11232617
   O      3.27546092      3.12067932      3.18948895

CRYSTAL
PRIMVEC        187
    6.34607605    0.00000000    0.00000000
    0.00000000    6.34607605    0.00000000
    0.00000000    0.00000000    6.34607605
PRIMCOORD      187
       3       1
   H      3.54001941      4.10383974      2.97801227
   H      2.30564632      3.12705354      3.12616165
   O      3.27231779      3.11672944      3.18875523

CRYSTAL
PRIMVEC        188
    6.34607605    0.00000000    0.00000000
    0.00000000    6.34607605    0.00000000
    0.00000000    0.00000000    6.34607605
PRIMCOORD      188
       3       1
   H      3.55841955      4.12470746      2.98071560
   H      2.32228166      3.14270317      3.13856406
   O      3.27011092      3.11442557      3.18779969

CRYSTAL
PRIMVEC        189
    6.34607605    0.00000000    0.00000000
    0.00000000    6.34607605    0.00000000
    0.00000000    0.00000000    6.34607605
PRIMCOORD      189
       3       1
   H      3.56755138      4.11558024      2.98973323
   H      2.32441905      3.16040774      3.15039167
   O      3.26940051      3.11388276      3.18648263

CRYSTAL
PRIMVEC        190
    6.34607605    0.00000000    0.00000000
    0.00000000    6.34607605    0.00000000
    0.00000000    0.00000000    6.34607605
PRIMCOORD      190
       3       1
   H      3.56776221      4.07613350      3.00526280
   H      2.30975085      3.18114221      3.16240384
   O      3.27030935      3.11505892      3.18474480

CRYSTAL
PRIMVEC        191
    6.34607605    0.00000000    0.00000000
    0.00000000    6.34607605    0.00000000
    0.00000000    0.00000000    6.34607605
PRIMCOORD      191
       3       1
   H      3.56270859      4.02447322      3.02224932
   H      2.28991744      3.20032142      3.17306919
   O      3.27187940      3.11709662      3.18300138

CRYSTAL
PRIMVEC        192
    6.34607605    0.00000000    0.00000000
    0.00000000    6.34607605    0.00000000
    0.00000000    0.00000000    6.34607605
PRIMCOORD      192
       3       1
   H      3.55954318      3.97722691      3.03853665
   H      2.27419168      3.21875216      3.18392551
   O      3.27307513      3.11890778      3.18128911

CRYSTAL
PRIMVEC        193
    6.34607605    0.00000000    0.00000000
    0.00000000    6.34607605    0.00000000
    0.00000000    0.00000000    6.34607605
PRIMCOORD      193
       3       1
   H      3.56836649      3.96066815      3.05016357
   H      2.27008483      3.23603932      3.19555084
   O      3.27278059      3.11885694      3.17982103

CRYSTAL
PRIMVEC        194
    6.34607605    0.00000000    0.00000000
    0.00000000    6.34607605    0.00000000
    0.00000000    0.00000000    6.34607605
PRIMCOORD      194
       3       1
   H      3.59494365      3.98677804      3.05614061
   H      2.28078457      3.25233067      3.20835442
   O      3.27043485      3.11617798      3.17863599

CRYSTAL
PRIMVEC        195
    6.34607605    0.00000000    0.00000000
    0.00000000    6.34607605    0.00000000
    0.00000000    0.00000000    6.34607605
PRIMCOORD      195
       3       1
   H      3.63257716      4.03612705      3.05980743
   H      2.30329268      3.26817533      3.22224560
   O      3.26665069      3.11206611      3.17752787

CRYSTAL
PRIMVEC        196
    6.34607605    0.00000000    0.00000000
    0.00000000    6.34607605    0.00000000
    0.00000000    0.00000000    6.34607605
PRIMCOORD      196
       3       1
   H      3.66786257      4.07780952      3.06488606
   H      2.32664899      3.28462985      3.23674008
   O      3.26295797      3.10839640      3.17629342

CRYSTAL
PRIMVEC        197
    6.34607605    0.00000000    0.00000000
    0.00000000    6.34607605    0.00000000
    0.00000000    0.00000000    6.34607605
PRIMCOORD      197
       3       1
   H      3.69219224      4.09366651      3.07301287
   H      2.33827423      3.30363240      3.25212276
   O      3.26069281      3.10619127      3.17481172

CRYSTAL
PRIMVEC        198
    6.34607605    0.00000000    0.00000000
    0.00000000    6.34607605    0.00000000
    0.00000000    0.00000000    6.34607605
PRIMCOORD      198
       3       1
   H      3.70309936      4.07807900      3.08472112
   H      2.33339348      3.32704133      3.26944848
   O      3.26031432      3.10569077      3.17298207

CRYSTAL
PRIMVEC        199
    6.34607605    0.00000000    0.00000000
    0.00000000    6.34607605    0.00000000
    0.00000000    0.00000000    6.34607605
PRIMCOORD      199
       3       1
   H      3.70127901      4.02995667      3.10051151
   H      2.31685749      3.35553769      3.28991742
   O      3.26147217      3.10691779      3.17069766

CRYSTAL
PRIMVEC        200
    6.34607605    0.00000000    0.00000000
    0.00000000    6.34607605    0.00000000
    0.00000000    0.00000000    6.34607605
PRIMCOORD      200
       3       1
   H      3.69176166      3.96199829      3.11829687
   H      2.30161807      3.38422491      3.31117278
   O      3.26303660      3.10938733      3.16823648
