#       72 eigenvalues    121 kpoints
# Ef:      -0.2943876381
# Format: nk kx ky kz weight, followed by eigenvalues
     1     0.00000     0.00000     0.00000     0.0082644628
     1     -2.4216243981
     2     -1.5499866377
     3     -1.5499866377
     4     -1.5499866377
     5     -1.5490251890
     6     -0.9846201349
     7     -0.9483906765
     8     -0.9483906765
     9     -0.8871474680
    10     -0.8871474680
    11     -0.8871474680
    12     -0.4501302561
    13     -0.4501302561
    14     -0.4501302561
    15     -0.3863508115
    16     -0.3863508115
    17     -0.3863508115
    18     -0.3568876381
    19     -0.3568876381
    20     -0.3568876381
    21     -0.2793543758
    22     -0.2793543758
    23     -0.2793543758
    24     -0.1874537517
    25     -0.1874537517
    26     -0.1445634244
    27     -0.1445634244
    28     -0.1146092467
    29     -0.0345114782
    30     -0.0345114782
    31     -0.0345114782
    32      0.2755207707
    33      0.3039668768
    34      0.3039668768
    35      0.3039668768
    36      0.5130328672
    37      0.5130328672
    38      0.5130328672
    39      0.5814515134
    40      0.5814515134
    41      0.6801652749
    42      0.6801652749
    43      0.6801652749
    44      0.8231756123
    45      0.8231756123
    46      0.8231756123
    47      1.1162596741
    48      1.1162596741
    49      1.2771204878
    50      1.2771204878
    51      1.2771204878
    52      1.3582139883
    53      1.5171369475
    54      1.5657946719
    55      1.5657946719
    56      1.5657946719
    57      1.5741522522
    58      1.5741522522
    59      1.5741522522
    60      1.5760561344
    61      1.5760561344
    62      2.0893312564
    63      2.0893312564
    64      2.0893312564
    65      2.3202820058
    66      2.3202820058
    67      2.3202820058
    68      2.4174644701
    69      2.7626130723
    70      2.7626130723
    71      3.7871955023
    72      5.6801766508
     2     0.01064     0.00000     0.00000     0.0082644628
     1     -2.4216243312
     2     -1.5500181160
     3     -1.5499864398
     4     -1.5499864398
     5     -1.5489967121
     6     -0.9846195921
     7     -0.9483975898
     8     -0.9483883699
     9     -0.8871448545
    10     -0.8871448545
    11     -0.8871043702
    12     -0.4502108810
    13     -0.4501342634
    14     -0.4501342634
    15     -0.3864369531
    16     -0.3864369531
    17     -0.3864064376
    18     -0.3570951828
    19     -0.3569393330
    20     -0.3569393330
    21     -0.2793446433
    22     -0.2791988188
    23     -0.2791988188
    24     -0.1874517368
    25     -0.1872476153
    26     -0.1444646912
    27     -0.1444562188
    28     -0.1144673157
    29     -0.0345274822
    30     -0.0344518597
    31     -0.0344518597
    32      0.2749984963
    33      0.3039667495
    34      0.3039667495
    35      0.3044934656
    36      0.5128367438
    37      0.5128528795
    38      0.5128528795
    39      0.5809975366
    40      0.5813034311
    41      0.6802718459
    42      0.6802718459
    43      0.6804249717
    44      0.8232631169
    45      0.8233410102
    46      0.8233410102
    47      1.1162780479
    48      1.1163793532
    49      1.2764355430
    50      1.2764355430
    51      1.2771363408
    52      1.3582564559
    53      1.5170152512
    54      1.5633781020
    55      1.5633781020
    56      1.5657970520
    57      1.5686136543
    58      1.5760543187
    59      1.5769680155
    60      1.5769680155
    61      1.5808639528
    62      2.0874753746
    63      2.0900759739
    64      2.0900759739
    65      2.3197291625
    66      2.3204660227
    67      2.3204660227
    68      2.4190887802
    69      2.7623726410
    70      2.7629611524
    71      3.7876048487
    72      5.6783428358
     3     0.02128     0.00000     0.00000     0.0082644628
     1     -2.4216241309
     2     -1.5501033971
     3     -1.5499858467
     4     -1.5499858467
     5     -1.5489204085
     6     -0.9846183316
     7     -0.9484175799
     8     -0.9483814638
     9     -0.8871370294
    10     -0.8871370294
    11     -0.8869756358
    12     -0.4504523545
    13     -0.4501462353
    14     -0.4501462353
    15     -0.3866945971
    16     -0.3866945971
    17     -0.3865727434
    18     -0.3577130232
    19     -0.3570921114
    20     -0.3570921114
    21     -0.2793155042
    22     -0.2787352773
    23     -0.2787352773
    24     -0.1874457532
    25     -0.1866340166
    26     -0.1441688503
    27     -0.1441353193
    28     -0.1140419141
    29     -0.0345754128
    30     -0.0342733729
    31     -0.0342733729
    32      0.2735385294
    33      0.3039664742
    34      0.3039664742
    35      0.3059639728
    36      0.5122501967
    37      0.5123152334
    38      0.5123152334
    39      0.5796420510
    40      0.5808619585
    41      0.6805896720
    42      0.6805896720
    43      0.6812013685
    44      0.8235187003
    45      0.8238364653
    46      0.8238364653
    47      1.1163245058
    48      1.1167383757
    49      1.2744012527
    50      1.2744012527
    51      1.2771838605
    52      1.3583965690
    53      1.5166500994
    54      1.5591703449
    55      1.5591703449
    56      1.5617568017
    57      1.5658041779
    58      1.5760488029
    59      1.5823563721
    60      1.5823563721
    61      1.5855199894
    62      2.0821171794
    63      2.0923059980
    64      2.0923059980
    65      2.3180780839
    66      2.3210187832
    67      2.3210187832
    68      2.4238039738
    69      2.7616521526
    70      2.7639951204
    71      3.7887735076
    72      5.6729805627
     4     0.03193     0.00000     0.00000     0.0082644628
     1     -2.4216237985
     2     -1.5502249634
     3     -1.5499848598
     4     -1.5499848598
     5     -1.5488137156
     6     -0.9846174446
     7     -0.9484484300
     8     -0.9483699989
     9     -0.8871240387
    10     -0.8871240387
    11     -0.8867629212
    12     -0.4508534763
    13     -0.4501660220
    14     -0.4501660220
    15     -0.3871213701
    16     -0.3871213701
    17     -0.3868480253
    18     -0.3587271360
    19     -0.3573393473
    20     -0.3573393473
    21     -0.2792671337
    22     -0.2779728780
    23     -0.2779728780
    24     -0.1874359781
    25     -0.1856270182
    26     -0.1436769747
    27     -0.1436028702
    28     -0.1133342160
    29     -0.0346550263
    30     -0.0339771220
    31     -0.0339771220
    32      0.2713780652
    33      0.3039663720
    34      0.3039663720
    35      0.3081339759
    36      0.5112786654
    37      0.5114267770
    38      0.5114267770
    39      0.5774043878
    40      0.5801351210
    41      0.6811131781
    42      0.6811131781
    43      0.6824866681
    44      0.8239216855
    45      0.8246597292
    46      0.8246597292
    47      1.1163739885
    48      1.1173367001
    49      1.2710768874
    50      1.2710768874
    51      1.2772629279
    52      1.3586719112
    53      1.5160413040
    54      1.5546379785
    55      1.5547446020
    56      1.5547446020
    57      1.5658160056
    58      1.5760393828
    59      1.5886953916
    60      1.5886953916
    61      1.5889433761
    62      2.0738296689
    63      2.0960090704
    64      2.0960090704
    65      2.3153509063
    66      2.3219424628
    67      2.3219424628
    68      2.4311875310
    69      2.7604540208
    70      2.7656842000
    71      3.7905300532
    72      5.6644881395
     5     0.04257     0.00000     0.00000     0.0082644628
     1     -2.4216233358
     2     -1.5503689271
     3     -1.5499834816
     4     -1.5499834816
     5     -1.5486903893
     6     -0.9846187073
     7     -0.9484865529
     8     -0.9483540426
     9     -0.8871059586
    10     -0.8871059586
    11     -0.8864689214
    12     -0.4514122578
    13     -0.4501933741
    14     -0.4501933741
    15     -0.3877132305
    16     -0.3877132305
    17     -0.3872294877
    18     -0.3601152782
    19     -0.3576709097
    20     -0.3576709097
    21     -0.2791998223
    22     -0.2769260134
    23     -0.2769260134
    24     -0.1874226906
    25     -0.1842488954
    26     -0.1429908426
    27     -0.1428624202
    28     -0.1123461800
    29     -0.0347659172
    30     -0.0335649395
    31     -0.0335649395
    32      0.2687509307
    33      0.3039669819
    34      0.3039669819
    35      0.3107575298
    36      0.5099311208
    37      0.5101985950
    38      0.5101985950
    39      0.5743167542
    40      0.5791353745
    41      0.6818333511
    42      0.6818333511
    43      0.6842687495
    44      0.8244380186
    45      0.8258069414
    46      0.8258069414
    47      1.1163878253
    48      1.1181742672
    49      1.2665540345
    50      1.2665540345
    51      1.2773733401
    52      1.3591431140
    53      1.5151885527
    54      1.5474945830
    55      1.5502756788
    56      1.5502756788
    57      1.5658324625
    58      1.5760257225
    59      1.5908593076
    60      1.5957357813
    61      1.5957357813
    62      2.0634168057
    63      2.1011651470
    64      2.1011651470
    65      2.3115838046
    66      2.3232408405
    67      2.3232408405
    68      2.4406705748
    69      2.7587822581
    70      2.7679772041
    71      3.7926106069
    72      5.6534686114
     6     0.05321     0.00000     0.00000     0.0082644628
     1     -2.4216227458
     2     -1.5505268815
     3     -1.5499817156
     4     -1.5499817156
     5     -1.5485586559
     6     -0.9846245166
     7     -0.9485271481
     8     -0.9483336891
     9     -0.8870828953
    10     -0.8870828953
    11     -0.8860972770
    12     -0.4521259382
    13     -0.4502279434
    14     -0.4502279434
    15     -0.3884643815
    16     -0.3884643815
    17     -0.3877133071
    18     -0.3618484795
    19     -0.3580743174
    20     -0.3580743174
    21     -0.2791139744
    22     -0.2756132820
    23     -0.2756132820
    24     -0.1874062491
    25     -0.1825285946
    26     -0.1421129257
    27     -0.1419188842
    28     -0.1110805520
    29     -0.0349075178
    30     -0.0330393741
    31     -0.0330393741
    32      0.2658289949
    33      0.3039690667
    34      0.3039690667
    35      0.3136456359
    36      0.5082199232
    37      0.5086455548
    38      0.5086455548
    39      0.5704242195
    40      0.5778784518
    41      0.6827381217
    42      0.6827381217
    43      0.6865322542
    44      0.8250209712
    45      0.8272724508
    46      0.8272724508
    47      1.1163183124
    48      1.1192510135
    49      1.2609478602
    50      1.2609478602
    51      1.2775148031
    52      1.3598902783
    53      1.5140914115
    54      1.5405227624
    55      1.5457449093
    56      1.5457449093
    57      1.5658534473
    58      1.5760073611
    59      1.5910289839
    60      1.6034041021
    61      1.6034041021
    62      2.0517693844
    63      2.1077468585
    64      2.1077468585
    65      2.3068259569
    66      2.3249195466
    67      2.3249195466
    68      2.4516580673
    69      2.7566424634
    70      2.7708026287
    71      3.7946896113
    72      5.6406491146
     7     0.06385     0.00000     0.00000     0.0082644628
     1     -2.4216220324
     2     -1.5506939903
     3     -1.5499795662
     4     -1.5499795662
     5     -1.5484231263
     6     -0.9846377981
     7     -0.9485644108
     8     -0.9483090586
     9     -0.8870549846
    10     -0.8870549846
    11     -0.8856524565
    12     -0.4529910056
    13     -0.4502692839
    14     -0.4502692839
    15     -0.3893672219
    16     -0.3893672219
    17     -0.3882947160
    18     -0.3638927887
    19     -0.3585360068
    20     -0.3585360068
    21     -0.2790101057
    22     -0.2740562829
    23     -0.2740562829
    24     -0.1873870660
    25     -0.1804999234
    26     -0.1410463791
    27     -0.1407784900
    28     -0.1095408668
    29     -0.0350791002
    30     -0.0324036746
    31     -0.0324036746
    32      0.2627236511
    33      0.3039736193
    34      0.3039736193
    35      0.3166645619
    36      0.5061606307
    37      0.5067857428
    38      0.5067857428
    39      0.5657847044
    40      0.5763821100
    41      0.6838128384
    42      0.6838128384
    43      0.6892597442
    44      0.8256122803
    45      0.8290485472
    46      0.8290485472
    47      1.1161148645
    48      1.1205668910
    49      1.2543880544
    50      1.2543880544
    51      1.2776869233
    52      1.3610071128
    53      1.5127493278
    54      1.5338827445
    55      1.5411078975
    56      1.5411078975
    57      1.5658788310
    58      1.5759837230
    59      1.5892580826
    60      1.6116434279
    61      1.6116434279
    62      2.0397522680
    63      2.1157199350
    64      2.1157199350
    65      2.3011381710
    66      2.3269864449
    67      2.3269864449
    68      2.4636081552
    69      2.7540418069
    70      2.7740687653
    71      3.7964188745
    72      5.6267867593
     8     0.07450     0.00000     0.00000     0.0082644628
     1     -2.4216212007
     2     -1.5508673620
     3     -1.5499770385
     4     -1.5499770385
     5     -1.5482864258
     6     -0.9846618870
     7     -0.9485917851
     8     -0.9482802967
     9     -0.8870223910
    10     -0.8870223910
    11     -0.8851396206
    12     -0.4540032184
    13     -0.4503168534
    14     -0.4503168534
    15     -0.3904123800
    16     -0.3904123800
    17     -0.3889681037
    18     -0.3662110512
    19     -0.3590424921
    20     -0.3590424921
    21     -0.2788888398
    22     -0.2722784369
    23     -0.2722784369
    24     -0.1873655801
    25     -0.1781996990
    26     -0.1397950372
    27     -0.1394487102
    28     -0.1077314473
    29     -0.0352797765
    30     -0.0316617703
    31     -0.0316617703
    32      0.2595030280
    33      0.3039818709
    34      0.3039818709
    35      0.3197183333
    36      0.5037717596
    37      0.5046398449
    38      0.5046398449
    39      0.5604689877
    40      0.5746649866
    41      0.6850407858
    42      0.6850407858
    43      0.6924327253
    44      0.8261438282
    45      0.8311250864
    46      0.8311250864
    47      1.1157312300
    48      1.1221218902
    49      1.2470110661
    50      1.2470110661
    51      1.2778891964
    52      1.3625925275
    53      1.5111616359
    54      1.5276930657
    55      1.5363260862
    56      1.5363260862
    57      1.5659084574
    58      1.5759541298
    59      1.5854229350
    60      1.6203889740
    61      1.6203889740
    62      2.0281297855
    63      2.1250434101
    64      2.1250434101
    65      2.2945912467
    66      2.3294521932
    67      2.3294521932
    68      2.4760659027
    69      2.7509890159
    70      2.7776640140
    71      3.7974707899
    72      5.6125751488
     9     0.08514     0.00000     0.00000     0.0082644628
     1     -2.4216202569
     2     -1.5510451395
     3     -1.5499741388
     4     -1.5499741388
     5     -1.5481501094
     6     -0.9847003818
     7     -0.9486022512
     8     -0.9482475738
     9     -0.8869853072
    10     -0.8869853072
    11     -0.8845644802
    12     -0.4551576273
    13     -0.4503700150
    14     -0.4503700150
    15     -0.3915888549
    16     -0.3915888549
    17     -0.3897271291
    18     -0.3687645383
    19     -0.3595812689
    20     -0.3595812689
    21     -0.2787509050
    22     -0.2703039594
    23     -0.2703039594
    24     -0.1873422328
    25     -0.1756660409
    26     -0.1383634218
    27     -0.1379381810
    28     -0.1056573978
    29     -0.0355085004
    30     -0.0308182460
    31     -0.0308182460
    32      0.2562067999
    33      0.3039952975
    34      0.3039952975
    35      0.3227334987
    36      0.5010745048
    37      0.5022305221
    38      0.5022305221
    39      0.5545607477
    40      0.5727456965
    41      0.6864037056
    42      0.6864037056
    43      0.6960324048
    44      0.8265399367
    45      0.8334889909
    46      0.8334889909
    47      1.1151328808
    48      1.1239160676
    49      1.2389544981
    50      1.2389544981
    51      1.2781209956
    52      1.3647400203
    53      1.5093275634
    54      1.5220210274
    55      1.5313733173
    56      1.5313733173
    57      1.5659421443
    58      1.5759178157
    59      1.5795043039
    60      1.6295667938
    61      1.6295667938
    62      2.0175196195
    63      2.1356694076
    64      2.1356694076
    65      2.2872641511
    66      2.3323310464
    67      2.3323310464
    68      2.4886659000
    69      2.7474943669
    70      2.7814578323
    71      3.7975807303
    72      5.5985645086
    10     0.09578     0.00000     0.00000     0.0082644628
     1     -2.4216192084
     2     -1.5512260279
     3     -1.5499708740
     4     -1.5499708740
     5     -1.5480151394
     6     -0.9847569749
     7     -0.9485886331
     8     -0.9482110843
     9     -0.8869439526
    10     -0.8869439526
    11     -0.8839331552
    12     -0.4564485930
    13     -0.4504280400
    14     -0.4504280400
    15     -0.3928842699
    16     -0.3928842699
    17     -0.3905648392
    18     -0.3715143196
    19     -0.3601413904
    20     -0.3601413904
    21     -0.2785971294
    22     -0.2681570496
    23     -0.2681570496
    24     -0.1873174482
    25     -0.1729369246
    26     -0.1367567636
    27     -0.1362566107
    28     -0.1033245852
    29     -0.0357640697
    30     -0.0298783157
    31     -0.0298783157
    32      0.2528559901
    33      0.3040156252
    34      0.3040156252
    35      0.3256487612
    36      0.4980924258
    37      0.4995818232
    38      0.4995818232
    39      0.5481566455
    40      0.5706422218
    41      0.6878822878
    42      0.6878822878
    43      0.7000401324
    44      0.8267202938
    45      0.8361236089
    46      0.8361236089
    47      1.1143033560
    48      1.1259495743
    49      1.2303538282
    50      1.2303538282
    51      1.2783815581
    52      1.3675259341
    53      1.5072462410
    54      1.5168652593
    55      1.5262355780
    56      1.5262355780
    57      1.5659796846
    58      1.5716266592
    59      1.5758739462
    60      1.6390972868
    61      1.6390972868
    62      2.0083672916
    63      2.1475423019
    64      2.1475423019
    65      2.2792420938
    66      2.3356420025
    67      2.3356420025
    68      2.5011191709
    69      2.7435696862
    70      2.7853030241
    71      3.7965833492
    72      5.5851053099
    11     0.10642     0.00000     0.00000     0.0082644628
     1     -2.4216180638
     2     -1.5514090484
     3     -1.5499672518
     4     -1.5499672518
     5     -1.5478821363
     6     -0.9848352658
     7     -0.9485439164
     8     -0.9481710455
     9     -0.8868985727
    10     -0.8868985727
    11     -0.8832520402
    12     -0.4578697992
    13     -0.4504901112
    14     -0.4504901112
    15     -0.3942852113
    16     -0.3942852113
    17     -0.3914737917
    18     -0.3744223351
    19     -0.3607137282
    20     -0.3607137282
    21     -0.2784284366
    22     -0.2658613113
    23     -0.2658613113
    24     -0.1872916180
    25     -0.1700490501
    26     -0.1349810420
    27     -0.1344146812
    28     -0.1007396022
    29     -0.0360451280
    30     -0.0288477916
    31     -0.0288477916
    32      0.2494590451
    33      0.3040448309
    34      0.3040448309
    35      0.3284082080
    36      0.4948511078
    37      0.4967186634
    38      0.4967186634
    39      0.5413664298
    40      0.5683715793
    41      0.6894566086
    42      0.6894566086
    43      0.7044375412
    44      0.8266034525
    45      0.8390079149
    46      0.8390079149
    47      1.1132482585
    48      1.1282226872
    49      1.2213411676
    50      1.2213411676
    51      1.2786699730
    52      1.3709982545
    53      1.5049167153
    54      1.5121174373
    55      1.5209086622
    56      1.5209086622
    57      1.5621082509
    58      1.5660208471
    59      1.5758216380
    60      1.6488991424
    61      1.6488991424
    62      2.0009395462
    63      2.1605970396
    64      2.1605970396
    65      2.2706145822
    66      2.3394104358
    67      2.3394104358
    68      2.5131940967
    69      2.7392283642
    70      2.7890403147
    71      3.7944381714
    72      5.5723209225
    12     0.11706     0.00000     0.00000     0.0082644628
     1     -2.4216168328
     2     -1.5515934043
     3     -1.5499632811
     4     -1.5499632811
     5     -1.5477515175
     6     -0.9849385673
     7     -0.9484615583
     8     -0.9481276964
     9     -0.8868494377
    10     -0.8868494377
    11     -0.8825276842
    12     -0.4594142586
    13     -0.4505553269
    14     -0.4505553269
    15     -0.3957776158
    16     -0.3957776158
    17     -0.3924461735
    18     -0.3774521760
    19     -0.3612909750
    20     -0.3612909750
    21     -0.2782458396
    22     -0.2634393824
    23     -0.2634393824
    24     -0.1872650934
    25     -0.1670370261
    26     -0.1330430411
    27     -0.1324239464
    28     -0.0979097041
    29     -0.0363501685
    30     -0.0277330512
    31     -0.0277330512
    32      0.2460155981
    33      0.3040851381
    34      0.3040851381
    35      0.3309567849
    36      0.4913778029
    37      0.4936663845
    38      0.4936663845
    39      0.5343129855
    40      0.5659497173
    41      0.6911065061
    42      0.6911065061
    43      0.7092064396
    44      0.8261107538
    45      0.8421155493
    46      0.8421155493
    47      1.1119959210
    48      1.1307358383
    49      1.2120455729
    50      1.2120455729
    51      1.2789851682
    52      1.3751677611
    53      1.5023379657
    54      1.5074730391
    55      1.5153954062
    56      1.5153954062
    57      1.5515468599
    58      1.5660653787
    59      1.5757599832
    60      1.6588925587
    61      1.6588925587
    62      1.9953369015
    63      2.1747563759
    64      2.1747563759
    65      2.2614735343
    66      2.3436704343
    67      2.3436704343
    68      2.5246958282
    69      2.7344853892
    70      2.7925063031
    71      3.7912414381
    72      5.5601100496
    13     0.12771     0.00000     0.00000     0.0082644628
     1     -2.4216155261
     2     -1.5517784073
     3     -1.5499589714
     4     -1.5499589714
     5     -1.5476235760
     6     -0.9850697159
     7     -0.9483357776
     8     -0.9480812966
     9     -0.8867968412
    10     -0.8867968412
    11     -0.8817666847
    12     -0.4610743118
    13     -0.4506227063
    14     -0.4506227063
    15     -0.3973471598
    16     -0.3973471598
    17     -0.3934739155
    18     -0.3805696102
    19     -0.3618674751
    20     -0.3618674751
    21     -0.2780504356
    22     -0.2609127342
    23     -0.2609127342
    24     -0.1872381802
    25     -0.1639328440
    26     -0.1309504213
    27     -0.1302967306
    28     -0.0948427135
    29     -0.0366775376
    30     -0.0265410020
    31     -0.0265410020
    32      0.2425188648
    33      0.3041390039
    34      0.3041390039
    35      0.3332372318
    36      0.4877010641
    37      0.4904504013
    38      0.4904504013
    39      0.5271321531
    40      0.5633915779
    41      0.6928118896
    42      0.6928118896
    43      0.7143285229
    44      0.8251704290
    45      0.8454137020
    46      0.8454137020
    47      1.1105944584
    48      1.1334896419
    49      1.2025944019
    50      1.2025944019
    51      1.2793258993
    52      1.3800029631
    53      1.4995089262
    54      1.5022480704
    55      1.5097031481
    56      1.5097031481
    57      1.5409845402
    58      1.5661130053
    59      1.5756880750
    60      1.6690015604
    61      1.6690015604
    62      1.9915226109
    63      2.1899267330
    64      2.1899267330
    65      2.2519115126
    66      2.3484681447
    67      2.3484681447
    68      2.5354455978
    69      2.7293574025
    70      2.7955458656
    71      3.7872233294
    72      5.5481752851
    14     0.13835     0.00000     0.00000     0.0082644628
     1     -2.4216141554
     2     -1.5519634339
     3     -1.5499543333
     4     -1.5499543333
     5     -1.5474985285
     6     -0.9852309020
     7     -0.9481618059
     8     -0.9480321247
     9     -0.8867410982
    10     -0.8867410982
    11     -0.8809755990
    12     -0.4628416188
    13     -0.4506911958
    14     -0.4506911958
    15     -0.3989796138
    16     -0.3989796138
    17     -0.3945487987
    18     -0.3837429051
    19     -0.3624389616
    20     -0.3624389616
    21     -0.2778433994
    22     -0.2583015973
    23     -0.2583015973
    24     -0.1872111389
    25     -0.1607655967
    26     -0.1287118013
    27     -0.1280460318
    28     -0.0915468870
    29     -0.0370254395
    30     -0.0252790426
    31     -0.0252790426
    32      0.2389572281
    33      0.3042090955
    34      0.3042090955
    35      0.3351882251
    36      0.4838503766
    37      0.4870959313
    38      0.4870959313
    39      0.5199720045
    40      0.5607112654
    41      0.6945529860
    42      0.6945529860
    43      0.7197849663
    44      0.8237215542
    45      0.8488618771
    46      0.8488618771
    47      1.1091057846
    48      1.1364849167
    49      1.1931152708
    50      1.1931152708
    51      1.2796907400
    52      1.3854295373
    53      1.4952241140
    54      1.4964285139
    55      1.5038416418
    56      1.5038416418
    57      1.5320344684
    58      1.5661634337
    59      1.5756050353
    60      1.6791555431
    61      1.6791555431
    62      1.9893611035
    63      2.2059923203
    64      2.2059923203
    65      2.2420201294
    66      2.3538665296
    67      2.3538665296
    68      2.5452600953
    69      2.7238627801
    70      2.7980297906
    71      3.7827318427
    72      5.5360708507
    15     0.14899     0.00000     0.00000     0.0082644628
     1     -2.4216127326
     2     -1.5521478995
     3     -1.5499493788
     4     -1.5499493788
     5     -1.5473765443
     6     -0.9854235324
     7     -0.9479804772
     8     -0.9479360885
     9     -0.8866825441
    10     -0.8866825441
    11     -0.8801608709
    12     -0.4647071471
    13     -0.4507596775
    14     -0.4507596775
    15     -0.4006611361
    16     -0.4006611361
    17     -0.3956625500
    18     -0.3869429963
    19     -0.3630022658
    20     -0.3630022658
    21     -0.2776259770
    22     -0.2556249736
    23     -0.2556249736
    24     -0.1871841874
    25     -0.1575613965
    26     -0.1263368454
    27     -0.1256854298
    28     -0.0880307435
    29     -0.0373919420
    30     -0.0239550226
    31     -0.0239550226
    32      0.2353153309
    33      0.3042982534
    34      0.3042982534
    35      0.3367438960
    36      0.4798557968
    37      0.4836277981
    38      0.4836277981
    39      0.5129910789
    40      0.5579222726
    41      0.6963105300
    42      0.6963105300
    43      0.7255559541
    44      0.8217174796
    45      0.8524106115
    46      0.8524106115
    47      1.1075978641
    48      1.1397226996
    49      1.1837382348
    50      1.1837382348
    51      1.2800780742
    52      1.3913342532
    53      1.4852702465
    54      1.4930956641
    55      1.4978214654
    56      1.4978214654
    57      1.5262287520
    58      1.5662163534
    59      1.5755100451
    60      1.6892902278
    61      1.6892902278
    62      1.9886574300
    63      2.2228071357
    64      2.2228071357
    65      2.2318886622
    66      2.3599519824
    67      2.3599519824
    68      2.5539310431
    69      2.7180217416
    70      2.7998776443
    71      3.7782062009
    72      5.5232608939
    16     0.15963     0.00000     0.00000     0.0082644628
     1     -2.4216112703
     2     -1.5523312429
     3     -1.5499441211
     4     -1.5499441211
     5     -1.5472577649
     6     -0.9856481388
     7     -0.9479266664
     8     -0.9476564232
     9     -0.8866215324
    10     -0.8866215324
    11     -0.8793287738
    12     -0.4666611572
    13     -0.4508269779
    14     -0.4508269779
    15     -0.4023784939
    16     -0.4023784939
    17     -0.3968069275
    18     -0.3901435474
    19     -0.3635550413
    20     -0.3635550413
    21     -0.2773994782
    22     -0.2529007028
    23     -0.2529007028
    24     -0.1871575054
    25     -0.1543434474
    26     -0.1238363487
    27     -0.1232290035
    28     -0.0843028575
    29     -0.0377749833
    30     -0.0225771989
    31     -0.0225771989
    32      0.2315748719
    33      0.3044094382
    34      0.3044094382
    35      0.3378352125
    36      0.4757476057
    37      0.4800702969
    38      0.4800702969
    39      0.5063549039
    40      0.5550377282
    41      0.6980659027
    42      0.6980659027
    43      0.7316201891
    44      0.8191283618
    45      0.8560002831
    46      0.8560002831
    47      1.1061367503
    48      1.1432042479
    49      1.1745978593
    50      1.1745978593
    51      1.2804860910
    52      1.3975727592
    53      1.4725968161
    54      1.4895093758
    55      1.4916528852
    56      1.4916528852
    57      1.5237380239
    58      1.5662714387
    59      1.5754023755
    60      1.6993481851
    61      1.6993481851
    62      1.9891911167
    63      2.2216028981
    64      2.2401847067
    65      2.2401847067
    66      2.3668430277
    67      2.3668430277
    68      2.5612060847
    69      2.7118564877
    70      2.8010842599
    71      3.7741434917
    72      5.5091797372
    17     0.17028     0.00000     0.00000     0.0082644628
     1     -2.4216097810
     2     -1.5525129173
     3     -1.5499385751
     4     -1.5499385751
     5     -1.5471423159
     6     -0.9859043366
     7     -0.9478710190
     8     -0.9473220314
     9     -0.8865584329
    10     -0.8865584329
    11     -0.8784853658
    12     -0.4686931916
    13     -0.4508918805
    14     -0.4508918805
    15     -0.4041192118
    16     -0.4041192118
    17     -0.3979737944
    18     -0.3933209327
    19     -0.3640955280
    20     -0.3640955280
    21     -0.2771652697
    22     -0.2501455573
    23     -0.2501455573
    24     -0.1871312394
    25     -0.1511322312
    26     -0.1212223126
    27     -0.1206912560
    28     -0.0803716275
    29     -0.0381723797
    30     -0.0211541891
    31     -0.0211541891
    32      0.2277152333
    33      0.3045456601
    34      0.3045456601
    35      0.3383938564
    36      0.4715559832
    37      0.4764471103
    38      0.4764471103
    39      0.5002300627
    40      0.5520706417
    41      0.6998012278
    42      0.6998012278
    43      0.7379544141
    44      0.8159425133
    45      0.8595602325
    46      0.8595602325
    47      1.1047797979
    48      1.1469310258
    49      1.1658348366
    50      1.1658348366
    51      1.2809127824
    52      1.4039794323
    53      1.4583307052
    54      1.4853451057
    55      1.4853451057
    56      1.4856687664
    57      1.5237766770
    58      1.5663283503
    59      1.5752814199
    60      1.7092790357
    61      1.7092790357
    62      1.9907413493
    63      2.2112442171
    64      2.2578864439
    65      2.2578864439
    66      2.3747003225
    67      2.3747003225
    68      2.5667742110
    69      2.7053913637
    70      2.8017454320
    71      3.7710624121
    72      5.4932868282
    18     0.18092     0.00000     0.00000     0.0082644628
     1     -2.4216082771
     2     -1.5526923840
     3     -1.5499327574
     4     -1.5499327574
     5     -1.5470303150
     6     -0.9861908382
     7     -0.9478138740
     8     -0.9469335622
     9     -0.8864936295
    10     -0.8864936295
    11     -0.8776364569
    12     -0.4707920719
    13     -0.4509531387
    14     -0.4509531387
    15     -0.4058716553
    16     -0.4058716553
    17     -0.3991551807
    18     -0.3964541682
    19     -0.3646223636
    20     -0.3646223636
    21     -0.2769247672
    22     -0.2473753506
    23     -0.2473753506
    24     -0.1871055084
    25     -0.1479457692
    26     -0.1185080034
    27     -0.1180870484
    28     -0.0762450331
    29     -0.0385818348
    30     -0.0196949215
    31     -0.0196949215
    32      0.2237140406
    33      0.3047098880
    34      0.3047098880
    35      0.3383590217
    36      0.4673107089
    37      0.4727812623
    38      0.4727812623
    39      0.4947753196
    40      0.5490341291
    41      0.7014994317
    42      0.7014994317
    43      0.7445329710
    44      0.8121664300
    45      0.8630085352
    46      0.8630085352
    47      1.1035709555
    48      1.1509046699
    49      1.1575967436
    50      1.1575967436
    51      1.2813559444
    52      1.4103706315
    53      1.4434539413
    54      1.4789058314
    55      1.4789058314
    56      1.4815731396
    57      1.5256594306
    58      1.5663867376
    59      1.5751467273
    60      1.7190393942
    61      1.7190393942
    62      1.9931034638
    63      2.2008889082
    64      2.2756123540
    65      2.2756123540
    66      2.3837343048
    67      2.3837343048
    68      2.5702621946
    69      2.6986530461
    70      2.8020743645
    71      3.7694678081
    72      5.4751112871
    19     0.19156     0.00000     0.00000     0.0082644628
     1     -2.4216067707
     2     -1.5528691103
     3     -1.5499266873
     4     -1.5499266873
     5     -1.5469218772
     6     -0.9865055137
     7     -0.9477555808
     8     -0.9464930365
     9     -0.8864275183
    10     -0.8864275183
    11     -0.8767875855
    12     -0.4729459087
    13     -0.4510094924
    14     -0.4510094924
    15     -0.4076250612
    16     -0.4076250612
    17     -0.4003433355
    18     -0.3995248052
    19     -0.3651344421
    20     -0.3651344421
    21     -0.2766794279
    22     -0.2446050451
    23     -0.2446050451
    24     -0.1870804091
    25     -0.1447999296
    26     -0.1157079861
    27     -0.1154315412
    28     -0.0719304025
    29     -0.0390009493
    30     -0.0182085810
    31     -0.0182085810
    32      0.2195477425
    33      0.3049049385
    34      0.3049049385
    35      0.3376867983
    36      0.4630408940
    37      0.4690950991
    38      0.4690950991
    39      0.4901301097
    40      0.5459416101
    41      0.7031442775
    42      0.7031442775
    43      0.7513274177
    44      0.8078235562
    45      0.8662528903
    46      0.8662528903
    47      1.1025384655
    48      1.1500374461
    49      1.1500374461
    50      1.1551269290
    51      1.2818131809
    52      1.4164270826
    53      1.4287450568
    54      1.4723410758
    55      1.4723410758
    56      1.4772220685
    57      1.5289817222
    58      1.5664462409
    59      1.5749980343
    60      1.7285925914
    61      1.7285925914
    62      1.9960983879
    63      2.1906077079
    64      2.2930037601
    65      2.2930037601
    66      2.3942009266
    67      2.3942009266
    68      2.5712516860
    69      2.6916707433
    70      2.8023965869
    71      3.7698193352
    72      5.4542832989
    20     0.20220     0.00000     0.00000     0.0082644628
     1     -2.4216052730
     2     -1.5530425676
     3     -1.5499203863
     4     -1.5499203863
     5     -1.5468171178
     6     -0.9868454908
     7     -0.9476964971
     8     -0.9460037408
     9     -0.8863605045
    10     -0.8863605045
    11     -0.8759440019
    12     -0.4751421302
    13     -0.4510596871
    14     -0.4510596871
    15     -0.4093695270
    16     -0.4093695270
    17     -0.4025167967
    18     -0.4015307679
    19     -0.3656308139
    20     -0.3656308139
    21     -0.2764307416
    22     -0.2418488532
    23     -0.2418488532
    24     -0.1870560203
    25     -0.1417087492
    26     -0.1128381281
    27     -0.1127401413
    28     -0.0674342095
    29     -0.0394272333
    30     -0.0167045509
    31     -0.0167045509
    32      0.2151922904
    33      0.3051333451
    34      0.3051333451
    35      0.3363605039
    36      0.4587747463
    37      0.4654102874
    38      0.4654102874
    39      0.4864020169
    40      0.5428069723
    41      0.7047203830
    42      0.7047203830
    43      0.7583062205
    44      0.8029520279
    45      0.8691931858
    46      0.8691931858
    47      1.1016947983
    48      1.1433145798
    49      1.1433145798
    50      1.1595995699
    51      1.2822819115
    52      1.4131895652
    53      1.4234222007
    54      1.4656551594
    55      1.4656551594
    56      1.4726154954
    57      1.5334883050
    58      1.5665064936
    59      1.5748352975
    60      1.7379082001
    61      1.7379082001
    62      1.9995770900
    63      2.1804655363
    64      2.3096746387
    65      2.3096746387
    66      2.4063689431
    67      2.4063689431
    68      2.5693258333
    69      2.6844764023
    70      2.8031116466
    71      3.7725069996
    72      5.4305517311
    21     0.21285     0.00000     0.00000     0.0082644628
     1     -2.4216037948
     2     -1.5532122314
     3     -1.5499138792
     4     -1.5499138792
     5     -1.5467161538
     6     -0.9872072823
     7     -0.9476369868
     8     -0.9454700860
     9     -0.8862930010
    10     -0.8862930010
    11     -0.8751106583
    12     -0.4773675308
    13     -0.4511024957
    14     -0.4511024957
    15     -0.4110959711
    16     -0.4110959711
    17     -0.4054163436
    18     -0.4027102796
    19     -0.3661106186
    20     -0.3661106186
    21     -0.2761802234
    22     -0.2391203286
    23     -0.2391203286
    24     -0.1870324077
    25     -0.1386847475
    26     -0.1100284540
    27     -0.1099155651
    28     -0.0627619242
    29     -0.0398581186
    30     -0.0151923500
    31     -0.0151923500
    32      0.2106239816
    33      0.3053972099
    34      0.3053972099
    35      0.3343990203
    36      0.4545393714
    37      0.4617478219
    38      0.4617478219
    39      0.4836561965
    40      0.5396446991
    41      0.7062132383
    42      0.7062132383
    43      0.7654345358
    44      0.7976017688
    45      0.8717262832
    46      0.8717262832
    47      1.1010383211
    48      1.1375845699
    49      1.1375845699
    50      1.1643242445
    51      1.2827593826
    52      1.3994761946
    53      1.4288314750
    54      1.4588508558
    55      1.4588508558
    56      1.4677538534
    57      1.5389763787
    58      1.5665671242
    59      1.5746587234
    60      1.7469613818
    61      1.7469613818
    62      2.0034218179
    63      2.1705214093
    64      2.3252841750
    65      2.3252841750
    66      2.4204462233
    67      2.4204462233
    68      2.5641439331
    69      2.6771049074
    70      2.8046207462
    71      3.7778354202
    72      5.4037890348
    22     0.22349     0.00000     0.00000     0.0082644628
     1     -2.4216023456
     2     -1.5533775824
     3     -1.5499071941
     4     -1.5499071941
     5     -1.5466191049
     6     -0.9875869257
     7     -0.9475774177
     8     -0.9448974443
     9     -0.8862254247
    10     -0.8862254247
    11     -0.8742922023
    12     -0.4796083451
    13     -0.4511367442
    14     -0.4511367442
    15     -0.4127960721
    16     -0.4127960721
    17     -0.4082117225
    18     -0.4038749899
    19     -0.3665730436
    20     -0.3665730436
    21     -0.2759294042
    22     -0.2364324425
    23     -0.2364324425
    24     -0.1870096265
    25     -0.1357392138
    26     -0.1073122359
    27     -0.1069586259
    28     -0.0579179376
    29     -0.0402909730
    30     -0.0136815652
    31     -0.0136815652
    32      0.2058205050
    33      0.3056980422
    34      0.3056980422
    35      0.3318598895
    36      0.4503606100
    37      0.4581280337
    38      0.4581280337
    39      0.4819100193
    40      0.5364699599
    41      0.7076092417
    42      0.7076092417
    43      0.7726740950
    44      0.7918313542
    45      0.8737532999
    46      0.8737532999
    47      1.1005560736
    48      1.1329949198
    49      1.1329949198
    50      1.1693023073
    51      1.2832426817
    52      1.3862335468
    53      1.4341482219
    54      1.4519296530
    55      1.4519296530
    56      1.4626382128
    57      1.5452520272
    58      1.5666277590
    59      1.5744687956
    60      1.7557320793
    61      1.7557320793
    62      2.0075454130
    63      2.1608284971
    64      2.3396307381
    65      2.3396307381
    66      2.4364849414
    67      2.4364849414
    68      2.5555229306
    69      2.6695942550
    70      2.8072403940
    71      3.7860173508
    72      5.3739856260
    23     0.23413     0.00000     0.00000     0.0082644628
     1     -2.4216009343
     2     -1.5535381071
     3     -1.5499003629
     4     -1.5499003629
     5     -1.5465260930
     6     -0.9879801260
     7     -0.9475181590
     8     -0.9442919779
     9     -0.8861581949
    10     -0.8861581949
    11     -0.8734929753
    12     -0.4818503428
    13     -0.4511613416
    14     -0.4511613416
    15     -0.4144621959
    16     -0.4144621959
    17     -0.4108931014
    18     -0.4050183535
    19     -0.3670173009
    20     -0.3670173009
    21     -0.2756798223
    22     -0.2337976468
    23     -0.2337976468
    24     -0.1869877247
    25     -0.1328824544
    26     -0.1046073494
    27     -0.1039867106
    28     -0.0529055761
    29     -0.0407231158
    30     -0.0121817806
    31     -0.0121817806
    32      0.2007621796
    33      0.3060365902
    34      0.3060365902
    35      0.3288353473
    36      0.4462629106
    37      0.4545705951
    38      0.4545705951
    39      0.4811348299
    40      0.5332986626
    41      0.7088957743
    42      0.7088957743
    43      0.7799832050
    44      0.7857050256
    45      0.8751890728
    46      0.8751890728
    47      1.1002270424
    48      1.1296740974
    49      1.1296740974
    50      1.1745345778
    51      1.2837287557
    52      1.3737994616
    53      1.4391352754
    54      1.4448921107
    55      1.4448921107
    56      1.4572704577
    57      1.5521174001
    58      1.5666880242
    59      1.5742662990
    60      1.7642040834
    61      1.7642040834
    62      2.0118895233
    63      2.1514343008
    64      2.3527055913
    65      2.3527055913
    66      2.4543273830
    67      2.4543273830
    68      2.5434904234
    69      2.6619856866
    70      2.8111378713
    71      3.7971755455
    72      5.3412365647
    24     0.24477     0.00000     0.00000     0.0082644628
     1     -2.4215995686
     2     -1.5536933001
     3     -1.5498934217
     4     -1.5498934217
     5     -1.5464372414
     6     -0.9883823900
     7     -0.9474595794
     8     -0.9436604687
     9     -0.8860917297
    10     -0.8860917297
    11     -0.8727170121
    12     -0.4840789456
    13     -0.4511753129
    14     -0.4511753129
    15     -0.4160873142
    16     -0.4160873142
    17     -0.4134523458
    18     -0.4061341728
    19     -0.3674426164
    20     -0.3674426164
    21     -0.2754330146
    22     -0.2312279225
    23     -0.2312279225
    24     -0.1869667449
    25     -0.1301239945
    26     -0.1019297130
    27     -0.1010201199
    28     -0.0477272185
    29     -0.0411518347
    30     -0.0107025026
    31     -0.0107025026
    32      0.1954333209
    33      0.3064126744
    34      0.3064126744
    35      0.3254421018
    36      0.4422692360
    37      0.4510945133
    38      0.4510945133
    39      0.4812641224
    40      0.5301474682
    41      0.7100613375
    42      0.7100613375
    43      0.7792901398
    44      0.7873168721
    45      0.8759725865
    46      0.8759725865
    47      1.1000254465
    48      1.1277202486
    49      1.1277202486
    50      1.1800210353
    51      1.2842144317
    52      1.3622624642
    53      1.4377383074
    54      1.4377383074
    55      1.4437884978
    56      1.4516535018
    57      1.5593730508
    58      1.5667475481
    59      1.5740523382
    60      1.7723640140
    61      1.7723640140
    62      2.0164222004
    63      2.1423809209
    64      2.3646611685
    65      2.3646611685
    66      2.4736375776
    67      2.4736375776
    68      2.5282841694
    69      2.6543237604
    70      2.8163153720
    71      3.8113508388
    72      5.3057235127
    25     0.25541     0.00000     0.00000     0.0082644628
     1     -2.4215982553
     2     -1.5538426658
     3     -1.5498864107
     4     -1.5498864107
     5     -1.5463526742
     6     -0.9887891471
     7     -0.9474020439
     8     -0.9430101572
     9     -0.8860264439
    10     -0.8860264439
    11     -0.8719680439
    12     -0.4862793611
    13     -0.4511778382
    14     -0.4511778382
    15     -0.4176649185
    16     -0.4176649185
    17     -0.4158828205
    18     -0.4072166059
    19     -0.3678482278
    20     -0.3678482278
    21     -0.2751905071
    22     -0.2287348139
    23     -0.2287348139
    24     -0.1869467260
    25     -0.1274727320
    26     -0.0992952482
    27     -0.0980798376
    28     -0.0423845201
    29     -0.0415744030
    30     -0.0092530833
    31     -0.0092530833
    32      0.1898236037
    33      0.3068250330
    34      0.3068250330
    35      0.3218078975
    36      0.4384010019
    37      0.4477181094
    38      0.4477181094
    39      0.4822052407
    40      0.5270337671
    41      0.7110957779
    42      0.7110957779
    43      0.7726552221
    44      0.7946270563
    45      0.8760762644
    46      0.8760762644
    47      1.0999236965
    48      1.1271908456
    49      1.1271908456
    50      1.1857604380
    51      1.2846964411
    52      1.3516612370
    53      1.4304683801
    54      1.4304683801
    55      1.4457915515
    56      1.4481355696
    57      1.5668059634
    58      1.5668259302
    59      1.5738283507
    60      1.7802002615
    61      1.7802002615
    62      2.0211351465
    63      2.1337053909
    64      2.3757238252
    65      2.3757238252
    66      2.4939888871
    67      2.4939888871
    68      2.5103033725
    69      2.6466563420
    70      2.8226401872
    71      3.8285136954
    72      5.2676947626
    26     0.26606     0.00000     0.00000     0.0082644628
     1     -2.4215970002
     2     -1.5539857206
     3     -1.5498793750
     4     -1.5498793750
     5     -1.5462725149
     6     -0.9891958515
     7     -0.9473459124
     8     -0.9423485937
     9     -0.8859627459
    10     -0.8859627459
    11     -0.8712495021
    12     -0.4884367284
    13     -0.4511682958
    14     -0.4511682958
    15     -0.4191889310
    16     -0.4191889310
    17     -0.4181791916
    18     -0.4082601701
    19     -0.3682333869
    20     -0.3682333869
    21     -0.2749538060
    22     -0.2263294489
    23     -0.2263294489
    24     -0.1869277045
    25     -0.1249370476
    26     -0.0967198198
    27     -0.0951872697
    28     -0.0419880986
    29     -0.0368787447
    30     -0.0078426439
    31     -0.0078426439
    32      0.1839292519
    33      0.3072711912
    34      0.3072711912
    35      0.3180584751
    36      0.4346780444
    37      0.4444589792
    38      0.4444589792
    39      0.4838511607
    40      0.5239756191
    41      0.7119906148
    42      0.7119906148
    43      0.7658686831
    44      0.8018630578
    45      0.8755116907
    46      0.8755116907
    47      1.0998948282
    48      1.1280957127
    49      1.1280957127
    50      1.1917498523
    51      1.2851714467
    52      1.3420060774
    53      1.4230831797
    54      1.4230831797
    55      1.4396904325
    56      1.4522115838
    57      1.5668629098
    58      1.5735961121
    59      1.5742975938
    60      1.7877019386
    61      1.7877019386
    62      2.0260407526
    63      2.1254400551
    64      2.3861148256
    65      2.3861148256
    66      2.4900394179
    67      2.5149438178
    68      2.5149438178
    69      2.6390344934
    70      2.8298959229
    71      3.8485765623
    72      5.2274457078
    27     0.27670     0.00000     0.00000     0.0082644628
     1     -2.4215958084
     2     -1.5541219951
     3     -1.5498723640
     4     -1.5498723640
     5     -1.5461968854
     6     -0.9895980671
     7     -0.9472915363
     8     -0.9416835034
     9     -0.8859010351
    10     -0.8859010351
    11     -0.8705645240
    12     -0.4905362692
    13     -0.4511463105
    14     -0.4511463105
    15     -0.4206536146
    16     -0.4206536146
    17     -0.4203372355
    18     -0.4092597436
    19     -0.3685973650
    20     -0.3685973650
    21     -0.2747243883
    22     -0.2240225467
    23     -0.2240225467
    24     -0.1869097152
    25     -0.1225248758
    26     -0.0942191680
    27     -0.0923639504
    28     -0.0423902236
    29     -0.0312111996
    30     -0.0064799996
    31     -0.0064799996
    32      0.1777538817
    33      0.3077473680
    34      0.3077473680
    35      0.3143075226
    36      0.4311186121
    37      0.4413339334
    38      0.4413339334
    39      0.4860899022
    40      0.5209916558
    41      0.7127394826
    42      0.7127394826
    43      0.7589981766
    44      0.8089720298
    45      0.8743299700
    46      0.8743299700
    47      1.0999143302
    48      1.1303952198
    49      1.1303952198
    50      1.1979840772
    51      1.2856360717
    52      1.3332869572
    53      1.4155850781
    54      1.4155850781
    55      1.4333580016
    56      1.4560493454
    57      1.5669180359
    58      1.5733577322
    59      1.5816302042
    60      1.7948578998
    61      1.7948578998
    62      2.0311690050
    63      2.1176129695
    64      2.3960092445
    65      2.3960092445
    66      2.4680126447
    67      2.5360964062
    68      2.5360964062
    69      2.6315122449
    70      2.8378302314
    71      3.8714049346
    72      5.1853015844
    28     0.28734     0.00000     0.00000     0.0082644628
     1     -2.4215946842
     2     -1.5542510366
     3     -1.5498654316
     4     -1.5498654316
     5     -1.5461259041
     6     -0.9899915327
     7     -0.9472392570
     8     -0.9410226660
     9     -0.8858416991
    10     -0.8858416991
    11     -0.8699159604
    12     -0.4925634411
    13     -0.4511118071
    14     -0.4511118071
    15     -0.4223536580
    16     -0.4220534813
    17     -0.4220534813
    18     -0.4102105641
    19     -0.3689394590
    20     -0.3689394590
    21     -0.2745036921
    22     -0.2218244133
    23     -0.2218244133
    24     -0.1868927914
    25     -0.1202437449
    26     -0.0918088305
    27     -0.0896312300
    28     -0.0427781242
    29     -0.0253837733
    30     -0.0051735882
    31     -0.0051735882
    32      0.1713088819
    33      0.3082484320
    34      0.3082484320
    35      0.3106506186
    36      0.4277393808
    37      0.4383589168
    38      0.4383589168
    39      0.4888106491
    40      0.5181009480
    41      0.7133386763
    42      0.7133386763
    43      0.7521105252
    44      0.8158996096
    45      0.8726164449
    46      0.8726164449
    47      1.0999613551
    48      1.1340039208
    49      1.1340039208
    50      1.2044549381
    51      1.2860869312
    52      1.3254784797
    53      1.4079789892
    54      1.4079789892
    55      1.4268046764
    56      1.4596746757
    57      1.5669710015
    58      1.5731156421
    59      1.5886898678
    60      1.8016558805
    61      1.8016558805
    62      2.0365643106
    63      2.1102483112
    64      2.4055254504
    65      2.4055254504
    66      2.4447275082
    67      2.5570845324
    68      2.5570845324
    69      2.6241462362
    70      2.8461878934
    71      3.8968258178
    72      5.1416037802
    29     0.29798     0.00000     0.00000     0.0082644628
     1     -2.4215936311
     2     -1.5543724114
     3     -1.5498586361
     4     -1.5498586361
     5     -1.5460596857
     6     -0.9903722121
     7     -0.9471894029
     8     -0.9403738068
     9     -0.8857851115
    10     -0.8857851115
    11     -0.8693063833
    12     -0.4945040857
    13     -0.4510650673
    14     -0.4510650673
    15     -0.4242259280
    16     -0.4233832010
    17     -0.4233832010
    18     -0.4111082265
    19     -0.3692589981
    20     -0.3692589981
    21     -0.2742931079
    22     -0.2197449258
    23     -0.2197449258
    24     -0.1868769656
    25     -0.1181007921
    26     -0.0895040545
    27     -0.0870099604
    28     -0.0431492118
    29     -0.0193995796
    30     -0.0039314049
    31     -0.0039314049
    32      0.1646133171
    33      0.3071629040
    34      0.3087679179
    35      0.3087679179
    36      0.4245554859
    37      0.4355489096
    38      0.4355489096
    39      0.4919068149
    40      0.5153228404
    41      0.7137877708
    42      0.7137877708
    43      0.7452721110
    44      0.8225906475
    45      0.8704811543
    46      0.8704811543
    47      1.1000193629
    48      1.1387982330
    49      1.1387982330
    50      1.2111504109
    51      1.2865206658
    52      1.3185436254
    53      1.4002736991
    54      1.4002736991
    55      1.4200441363
    56      1.4631045012
    57      1.5670214794
    58      1.5728725688
    59      1.5953677516
    60      1.8080818101
    61      1.8080818101
    62      2.0422822799
    63      2.1033667820
    64      2.4147290341
    65      2.4147290341
    66      2.4206463928
    67      2.5775883117
    68      2.5775883117
    69      2.6169952185
    70      2.8547293249
    71      3.9246329071
    72      5.0967005795
    30     0.30863     0.00000     0.00000     0.0082644628
     1     -2.4215926524
     2     -1.5544857070
     3     -1.5498520391
     4     -1.5498520391
     5     -1.5459983391
     6     -0.9907363297
     7     -0.9471422878
     8     -0.9397444988
     9     -0.8857316287
    10     -0.8857316287
    11     -0.8687380964
    12     -0.4963445690
    13     -0.4510067895
    14     -0.4510067895
    15     -0.4259521299
    16     -0.4246375125
    17     -0.4246375125
    18     -0.4119486785
    19     -0.3695553495
    20     -0.3695553495
    21     -0.2740939687
    22     -0.2177935065
    23     -0.2177935065
    24     -0.1868622692
    25     -0.1161027607
    26     -0.0873196985
    27     -0.0845201972
    28     -0.0435009831
    29     -0.0132637373
    30     -0.0027609454
    31     -0.0027609454
    32      0.1576934716
    33      0.3038995749
    34      0.3092981116
    35      0.3092981116
    36      0.4215805688
    37      0.4329178144
    38      0.4329178144
    39      0.4952768291
    40      0.5126767539
    41      0.7140902513
    42      0.7140902513
    43      0.7385496193
    44      0.8289900111
    45      0.8680474075
    46      0.8680474075
    47      1.1000762724
    48      1.1446257407
    49      1.1446257407
    50      1.2180535060
    51      1.2869339752
    52      1.3124368752
    53      1.3924836430
    54      1.3924836430
    55      1.4130942803
    56      1.4663465705
    57      1.5670691582
    58      1.5726314993
    59      1.6015796473
    60      1.8141193413
    61      1.8141193413
    62      2.0483865062
    63      2.0969859974
    64      2.3961773461
    65      2.4236407109
    66      2.4236407109
    67      2.5973250419
    68      2.5973250419
    69      2.6101194165
    70      2.8632389426
    71      3.9545881405
    72      5.0509429639
    31     0.31927     0.00000     0.00000     0.0082644628
     1     -2.4215917506
     2     -1.5545905347
     3     -1.5498457055
     4     -1.5498457055
     5     -1.5459419672
     6     -0.9910803946
     7     -0.9470982083
     8     -0.9391420736
     9     -0.8856815880
    10     -0.8856815880
    11     -0.8682131457
    12     -0.4980719117
    13     -0.4509381462
    14     -0.4509381462
    15     -0.4275308342
    16     -0.4258111383
    17     -0.4258111383
    18     -0.4127282167
    19     -0.3698279234
    20     -0.3698279234
    21     -0.2739075412
    22     -0.2159790889
    23     -0.2159790889
    24     -0.1868487326
    25     -0.1142559855
    26     -0.0852701222
    27     -0.0821809338
    28     -0.0438310415
    29     -0.0069843532
    30     -0.0016691584
    31     -0.0016691584
    32      0.1505822796
    33      0.3008981567
    34      0.3098302083
    35      0.3098302083
    36      0.4188268343
    37      0.4304783385
    38      0.4304783385
    39      0.4988234806
    40      0.5101819628
    41      0.7142540642
    42      0.7142540642
    43      0.7320110150
    44      0.8350434341
    45      0.8654408274
    46      0.8654408274
    47      1.1001242198
    48      1.1513136744
    49      1.1513136744
    50      1.2251407892
    51      1.2873236539
    52      1.3071069581
    53      1.3846313389
    54      1.3846313389
    55      1.4059785823
    56      1.4694000673
    57      1.5671137433
    58      1.5723956312
    59      1.6072645274
    60      1.8197496322
    61      1.8197496322
    62      2.0549453634
    63      2.0911208522
    64      2.3716707355
    65      2.4322439095
    66      2.4322439095
    67      2.6035797560
    68      2.6160449836
    69      2.6160449836
    70      2.8715277419
    71      3.9864192094
    72      5.0046861106
    32     0.32991     0.00000     0.00000     0.0082644628
     1     -2.4215909281
     2     -1.5546865314
     3     -1.5498397020
     4     -1.5498397020
     5     -1.5458906657
     6     -0.9914012158
     7     -0.9470574420
     8     -0.9385735382
     9     -0.8856353054
    10     -0.8856353054
    11     -0.8677333317
    12     -0.4996739062
    13     -0.4508608356
    14     -0.4508608356
    15     -0.4289609887
    16     -0.4268987101
    17     -0.4268987101
    18     -0.4134434814
    19     -0.3700761765
    20     -0.3700761765
    21     -0.2737350168
    22     -0.2143100751
    23     -0.2143100751
    24     -0.1868363850
    25     -0.1125663706
    26     -0.0833690678
    27     -0.0800098772
    28     -0.0441371173
    29     -0.0006624084
    30     -0.0006624084
    31     -0.0005738528
    32      0.1433189987
    33      0.2981816566
    34      0.3103545409
    35      0.3103545409
    36      0.4163051154
    37      0.4282418816
    38      0.4282418816
    39      0.5024525158
    40      0.5078573470
    41      0.7142919752
    42      0.7142919752
    43      0.7257266157
    44      0.8406983769
    45      0.8627804767
    46      0.8627804767
    47      1.1001590322
    48      1.1586747726
    49      1.1586747726
    50      1.2323803112
    51      1.2876866264
    52      1.3024993276
    53      1.3767507791
    54      1.3767507791
    55      1.3987280898
    56      1.4722566824
    57      1.5671549594
    58      1.5721683116
    59      1.6123824543
    60      1.8249513996
    61      1.8249513996
    62      2.0620288113
    63      2.0857838594
    64      2.3474211913
    65      2.4404910900
    66      2.4404910900
    67      2.5974369702
    68      2.6335289072
    69      2.6335289072
    70      2.8794329884
    71      4.0198120955
    72      4.9582975987
    33     0.34055     0.00000     0.00000     0.0082644628
     1     -2.4215901869
     2     -1.5547733619
     3     -1.5498340964
     4     -1.5498340964
     5     -1.5458445226
     6     -0.9916959114
     7     -0.9470202458
     8     -0.9380454988
     9     -0.8855930730
    10     -0.8855930730
    11     -0.8673002223
    12     -0.5011392213
    13     -0.4507771169
    14     -0.4507771169
    15     -0.4302418280
    16     -0.4278947127
    17     -0.4278947127
    18     -0.4140914515
    19     -0.3702996155
    20     -0.3702996155
    21     -0.2735775031
    22     -0.2127942888
    23     -0.2127942888
    24     -0.1868252543
    25     -0.1110393624
    26     -0.0816295328
    27     -0.0780232734
    28     -0.0444170877
    29      0.0002535502
    30      0.0002535502
    31      0.0059490467
    32      0.1359496167
    33      0.2957619288
    34      0.3108608710
    35      0.3108608710
    36      0.4140249416
    37      0.4262184437
    38      0.4262184437
    39      0.5057211291
    40      0.5060710216
    41      0.7142216110
    42      0.7142216110
    43      0.7197700961
    44      0.8459048632
    45      0.8601727514
    46      0.8601727514
    47      1.1001795280
    48      1.1665095134
    49      1.1665095134
    50      1.2397285398
    51      1.2880199823
    52      1.2985584064
    53      1.3688922218
    54      1.3688922218
    55      1.3913844878
    56      1.4749019138
    57      1.5671925518
    58      1.5719529648
    59      1.6169120382
    60      1.8297012493
    61      1.8297012493
    62      2.0697051036
    63      2.0809854576
    64      2.3236726282
    65      2.4483091161
    66      2.4483091161
    67      2.5917506074
    68      2.6495870337
    69      2.6495870337
    70      2.8868166232
    71      4.0543966585
    72      4.9121742045
    34     0.35119     0.00000     0.00000     0.0082644628
     1     -2.4215895287
     2     -1.5548507209
     3     -1.5498289557
     4     -1.5498289557
     5     -1.5458036174
     6     -0.9919619117
     7     -0.9469868541
     8     -0.9375640880
     9     -0.8855551577
    10     -0.8855551577
    11     -0.8669151672
    12     -0.5024574938
    13     -0.4506898172
    14     -0.4506898172
    15     -0.4313728013
    16     -0.4287934580
    17     -0.4287934580
    18     -0.4146694396
    19     -0.3704977986
    20     -0.3704977986
    21     -0.2734360157
    22     -0.2114389238
    23     -0.2114389238
    24     -0.1868153661
    25     -0.1096799222
    26     -0.0800636374
    27     -0.0762357803
    28     -0.0446689956
    29      0.0010735888
    30      0.0010735888
    31      0.0125561414
    32      0.1285287150
    33      0.2936428255
    34      0.3113387273
    35      0.3113387273
    36      0.4119946094
    37      0.4244165668
    38      0.4244165668
    39      0.5037905998
    40      0.5095860213
    41      0.7140650798
    42      0.7140650798
    43      0.7142192025
    44      0.8506162629
    45      0.8577080044
    46      0.8577080044
    47      1.1001867478
    48      1.1746042285
    49      1.1746042285
    50      1.2471255424
    51      1.2883210103
    52      1.2952295982
    53      1.3611289873
    54      1.3611289873
    55      1.3840049902
    56      1.4773164899
    57      1.5672262884
    58      1.5717530098
    59      1.6208475467
    60      1.8339742648
    61      1.8339742648
    62      2.0767342860
    63      2.0780370890
    64      2.3006252842
    65      2.4556043410
    66      2.4556043410
    67      2.5865779655
    68      2.6640586360
    69      2.6640586360
    70      2.8935631569
    71      4.0897215340
    72      4.8667707733
    35     0.36184     0.00000     0.00000     0.0082644628
     1     -2.4215889551
     2     -1.5549183344
     3     -1.5498243451
     4     -1.5498243451
     5     -1.5457680212
     6     -0.9921969595
     7     -0.9469574771
     8     -0.9371348974
     9     -0.8855217990
    10     -0.8855217990
    11     -0.8665793119
    12     -0.5036194076
    13     -0.4506022950
    14     -0.4506022950
    15     -0.4323535156
    16     -0.4295891047
    17     -0.4295891047
    18     -0.4151750870
    19     -0.3706703367
    20     -0.3706703367
    21     -0.2733114704
    22     -0.2102504902
    23     -0.2102504902
    24     -0.1868067446
    25     -0.1084924981
    26     -0.0786824888
    27     -0.0746603839
    28     -0.0448910678
    29      0.0017932110
    30      0.0017932110
    31      0.0192041264
    32      0.1211240513
    33      0.2918229067
    34      0.3117777737
    35      0.3117777737
    36      0.4102212507
    37      0.4228433247
    38      0.4228433247
    39      0.5020818402
    40      0.5129036791
    41      0.7091558852
    42      0.7138481092
    43      0.7138481092
    44      0.8547899933
    45      0.8554594608
    46      0.8554594608
    47      1.1001832002
    48      1.1827248136
    49      1.1827248136
    50      1.2544870581
    51      1.2885872310
    52      1.2924610536
    53      1.3535669981
    54      1.3535669981
    55      1.3766704233
    56      1.4794778776
    57      1.5672559605
    58      1.5715717708
    59      1.6241957269
    60      1.8377448214
    61      1.8377448214
    62      2.0730374264
    63      2.0870773028
    64      2.2784447647
    65      2.4622680190
    66      2.4622680190
    67      2.5819729906
    68      2.6768115824
    69      2.6768115824
    70      2.8995774114
    71      4.1252118231
    72      4.8226473220
    36     0.37248     0.00000     0.00000     0.0082644628
     1     -2.4215884674
     2     -1.5549759619
     3     -1.5498203257
     4     -1.5498203257
     5     -1.5457377958
     6     -0.9923991087
     7     -0.9469322998
     8     -0.9367629152
     9     -0.8854932077
    10     -0.8854932077
    11     -0.8662936122
    12     -0.5046167609
    13     -0.4505183420
    14     -0.4505183420
    15     -0.4331836924
    16     -0.4302757418
    17     -0.4302757418
    18     -0.4156063594
    19     -0.3708168938
    20     -0.3708168938
    21     -0.2732046763
    22     -0.2092347616
    23     -0.2092347616
    24     -0.1867994110
    25     -0.1074809996
    26     -0.0774960468
    27     -0.0733083501
    28     -0.0450817314
    29      0.0024085512
    30      0.0024085512
    31      0.0258240224
    32      0.1138264123
    33      0.2902976272
    34      0.3121681818
    35      0.3121681818
    36      0.4087108986
    37      0.4215043677
    38      0.4215043677
    39      0.5006094493
    40      0.5159295265
    41      0.7046654795
    42      0.7135987080
    43      0.7135987080
    44      0.8534838454
    45      0.8534838454
    46      0.8583881201
    47      1.1001721872
    48      1.1906059728
    49      1.1906059728
    50      1.2616910191
    51      1.2888164272
    52      1.2902051757
    53      1.3463576431
    54      1.3463576431
    55      1.3694989335
    56      1.4813618579
    57      1.5672813850
    58      1.5714123830
    59      1.6269724099
    60      1.8409875698
    61      1.8409875698
    62      2.0699006125
    63      2.0968597747
    64      2.2572746651
    65      2.4681824680
    66      2.4681824680
    67      2.5779851738
    68      2.6877412608
    69      2.6877412608
    70      2.9047822787
    71      4.1600992004
    72      4.7805443280
    37     0.38312     0.00000     0.00000     0.0082644628
     1     -2.4215880667
     2     -1.5550233971
     3     -1.5498169534
     4     -1.5498169534
     5     -1.5457129937
     6     -0.9925667208
     7     -0.9469114807
     8     -0.9364524685
     9     -0.8854695644
    10     -0.8854695644
    11     -0.8660588485
    12     -0.5054425228
    13     -0.4504420070
    14     -0.4504420070
    15     -0.4338631359
    16     -0.4308475509
    17     -0.4308475509
    18     -0.4159615429
    19     -0.3709371867
    20     -0.3709371867
    21     -0.2731163295
    22     -0.2083967236
    23     -0.2083967236
    24     -0.1867933841
    25     -0.1066487745
    26     -0.0765129953
    27     -0.0721892023
    28     -0.0452396289
    29      0.0029163673
    30      0.0029163673
    31      0.0323000343
    32      0.1067703038
    33      0.2890610119
    34      0.3125009874
    35      0.3125009874
    36      0.4074685476
    37      0.4204040261
    38      0.4204040261
    39      0.4993862847
    40      0.5185701208
    41      0.7008345376
    42      0.7133454344
    43      0.7133454344
    44      0.8518231382
    45      0.8518231382
    46      0.8613778510
    47      1.1001572468
    48      1.1979370178
    49      1.1979370178
    50      1.2685545190
    51      1.2884198600
    52      1.2890066723
    53      1.3397133744
    54      1.3397133744
    55      1.3626693094
    56      1.4829441482
    57      1.5673024047
    58      1.5712776988
    59      1.6291989941
    60      1.8436785220
    61      1.8436785220
    62      2.0673284074
    63      2.1073826960
    64      2.2372582931
    65      2.4732281394
    66      2.4732281394
    67      2.5746584899
    68      2.6967685530
    69      2.6967685530
    70      2.9091165954
    71      4.1933110042
    72      4.7414992183
    38     0.39376     0.00000     0.00000     0.0082644628
     1     -2.4215877540
     2     -1.5550604698
     3     -1.5498142767
     4     -1.5498142767
     5     -1.5456936583
     6     -0.9926984615
     7     -0.9468951507
     8     -0.9362071725
     9     -0.8854510185
    10     -0.8854510185
    11     -0.8658756385
    12     -0.5060908795
    13     -0.4503773374
    14     -0.4503773374
    15     -0.4343917097
    16     -0.4312990537
    17     -0.4312990537
    18     -0.4162392399
    19     -0.3710309852
    20     -0.3710309852
    21     -0.2730470074
    22     -0.2077405269
    23     -0.2077405269
    24     -0.1867886797
    25     -0.1059985888
    26     -0.0757406221
    27     -0.0713107171
    28     -0.0453636307
    29      0.0033140303
    30      0.0033140303
    31      0.0384255648
    32      0.1001776973
    33      0.2881068824
    34      0.3127684102
    35      0.3127684102
    36      0.4064982069
    37      0.4195454625
    38      0.4195454625
    39      0.4984232253
    40      0.5207364412
    41      0.6977470093
    42      0.7131154249
    43      0.7131154249
    44      0.8505069369
    45      0.8505069369
    46      0.8637319193
    47      1.1001417244
    48      1.2043489535
    49      1.2043489535
    50      1.2747964256
    51      1.2870694790
    52      1.2891563539
    53      1.3339215990
    54      1.3339215990
    55      1.3564586934
    56      1.4842020249
    57      1.5673188896
    58      1.5711701968
    59      1.6308989530
    60      1.8457961590
    61      1.8457961590
    62      2.0653243506
    63      2.1185628322
    64      2.2185883600
    65      2.4772914508
    66      2.4772914508
    67      2.5720304155
    68      2.7038368065
    69      2.7038368065
    70      2.9125332083
    71      4.2233127387
    72      4.7070092345
    39     0.40441     0.00000     0.00000     0.0082644628
     1     -2.4215875302
     2     -1.5550870463
     3     -1.5498123351
     4     -1.5498123351
     5     -1.5456798232
     6     -0.9927932973
     7     -0.9468834126
     8     -0.9360298870
     9     -0.8854376872
    10     -0.8854376872
    11     -0.8657444495
    12     -0.5065572720
    13     -0.4503280473
    14     -0.4503280473
    15     -0.4347693211
    16     -0.4316254337
    17     -0.4316254337
    18     -0.4164383669
    19     -0.3710981109
    20     -0.3710981109
    21     -0.2729971640
    22     -0.2072694457
    23     -0.2072694457
    24     -0.1867853103
    25     -0.1055326110
    26     -0.0751847144
    27     -0.0706789287
    28     -0.0454528469
    29      0.0035995122
    30      0.0035995122
    31      0.0438138406
    32      0.0944473078
    33      0.2874297171
    34      0.3129641220
    35      0.3129641220
    36      0.4058029459
    37      0.4189308558
    38      0.4189308558
    39      0.4977289636
    40      0.5223490196
    41      0.6954787686
    42      0.7129323829
    43      0.7129323829
    44      0.8495549814
    45      0.8495549814
    46      0.8654288684
    47      1.1001284675
    48      1.2094161947
    49      1.2094161947
    50      1.2799882605
    51      1.2861256294
    52      1.2892641958
    53      1.3293436911
    54      1.3293436911
    55      1.3512920324
    56      1.4851158731
    57      1.5673307379
    58      1.5710919004
    59      1.6320945489
    60      1.8473224792
    61      1.8473224792
    62      2.0638910759
    63      2.1300855967
    64      2.2016605309
    65      2.4802729200
    66      2.4802729200
    67      2.5701310662
    68      2.7089080474
    69      2.7089080474
    70      2.9149972961
    71      4.2479518968
    72      4.6791924349
    40     0.41505     0.00000     0.00000     0.0082644628
     1     -2.4215873956
     2     -1.5551030308
     3     -1.5498111581
     4     -1.5498111581
     5     -1.5456715125
     6     -0.9928504925
     7     -0.9468763401
     8     -0.9359226807
     9     -0.8854296545
    10     -0.8854296545
    11     -0.8656656077
    12     -0.5068384235
    13     -0.4502971515
    14     -0.4502971515
    15     -0.4349959102
    16     -0.4318228944
    17     -0.4318228944
    18     -0.4165581515
    19     -0.3711384368
    20     -0.3711384368
    21     -0.2729671263
    22     -0.2069858441
    23     -0.2069858441
    24     -0.1867832850
    25     -0.1052523987
    26     -0.0748494713
    27     -0.0702981381
    28     -0.0455066353
    29      0.0037713739
    30      0.0037713739
    31      0.0477591513
    32      0.0902933435
    33      0.2870252241
    34      0.3130834563
    35      0.3130834563
    36      0.4053849304
    37      0.4185615908
    38      0.4185615908
    39      0.4973098357
    40      0.5233442658
    41      0.6940910250
    42      0.7128147411
    43      0.7128147411
    44      0.8489794808
    45      0.8489794808
    46      0.8664532496
    47      1.1001196253
    48      1.2126977443
    49      1.2126977443
    50      1.2835352836
    51      1.2855676705
    52      1.2893292740
    53      1.3263743705
    54      1.3263743705
    55      1.3477612958
    56      1.4856705645
    57      1.5673378763
    58      1.5710443077
    59      1.6328039645
    60      1.8482439090
    61      1.8482439090
    62      2.0630304014
    63      2.1407770423
    64      2.1877044213
    65      2.4820948734
    66      2.4820948734
    67      2.5689824863
    68      2.7119589406
    69      2.7119589406
    70      2.9164850021
    71      4.2645148259
    72      4.6607348398
    41     0.42569     0.00000     0.00000     0.0082644628
     1     -2.4215873507
     2     -1.5551083654
     3     -1.5498107637
     4     -1.5498107637
     5     -1.5456687407
     6     -0.9928696064
     7     -0.9468739776
     8     -0.9358868056
     9     -0.8854269713
    10     -0.8854269713
    11     -0.8656393059
    12     -0.5069323605
    13     -0.4502866237
    14     -0.4502866237
    15     -0.4350714435
    16     -0.4318889956
    17     -0.4318889956
    18     -0.4165981311
    19     -0.3711518873
    20     -0.3711518873
    21     -0.2729570918
    22     -0.2068911509
    23     -0.2068911509
    24     -0.1867826093
    25     -0.1051588902
    26     -0.0747374392
    27     -0.0701709219
    28     -0.0455246080
    29      0.0038287564
    30      0.0038287564
    31      0.0492629175
    32      0.0887194630
    33      0.2868907003
    34      0.3131235551
    35      0.3131235551
    36      0.4052454493
    37      0.4184384229
    38      0.4184384229
    39      0.4971696953
    40      0.5236808090
    41      0.6936237956
    42      0.7127741917
    43      0.7127741917
    44      0.8487869669
    45      0.8487869669
    46      0.8667957474
    47      1.1001165280
    48      1.2138381540
    49      1.2138381540
    50      1.2848136581
    51      1.2853830826
    52      1.2893510292
    53      1.3253411506
    54      1.3253411506
    55      1.3464885526
    56      1.4858565497
    57      1.5673402606
    58      1.5710283399
    59      1.6330390637
    60      1.8485520071
    61      1.8485520071
    62      2.0627433929
    63      2.1461587667
    64      2.1812309179
    65      2.4827078527
    66      2.4827078527
    67      2.5685981203
    68      2.7129771730
    69      2.7129771730
    70      2.9169824255
    71      4.2704111152
    72      4.6542090442
    42     0.42569     0.01064     0.00000     0.0082644628
     1     -2.4215872708
     2     -1.5551051349
     3     -1.5498150021
     4     -1.5498105588
     5     -1.5456708322
     6     -0.9928365579
     7     -0.9468653247
     8     -0.9359205009
     9     -0.8854237137
    10     -0.8853989212
    11     -0.8656538670
    12     -0.5069357519
    13     -0.4503286404
    14     -0.4502864483
    15     -0.4366452192
    16     -0.4319193884
    17     -0.4306213958
    18     -0.4162519466
    19     -0.3713030018
    20     -0.3712474573
    21     -0.2728234474
    22     -0.2068913617
    23     -0.2068899741
    24     -0.1866346320
    25     -0.1050836140
    26     -0.0746810810
    27     -0.0700752774
    28     -0.0454456512
    29      0.0036627441
    30      0.0038338464
    31      0.0494226025
    32      0.0886927075
    33      0.2869701661
    34      0.3128389255
    35      0.3131585175
    36      0.4030965835
    37      0.4182866733
    38      0.4206346917
    39      0.4974405325
    40      0.5238262076
    41      0.6937893344
    42      0.7117136313
    43      0.7127756192
    44      0.8487106608
    45      0.8489304094
    46      0.8676821201
    47      1.1001033806
    48      1.2127343545
    49      1.2133419783
    50      1.2839768925
    51      1.2853290910
    52      1.2899167033
    53      1.3253230770
    54      1.3262333098
    55      1.3468170383
    56      1.4860906011
    57      1.5670019125
    58      1.5706675237
    59      1.6328124662
    60      1.8486650831
    61      1.8487541116
    62      2.0626674412
    63      2.1468085113
    64      2.1806112287
    65      2.4790210917
    66      2.4831508114
    67      2.5731550148
    68      2.7102699695
    69      2.7127455358
    70      2.9160300846
    71      4.2700658042
    72      4.6491133946
    43     0.42569     0.02128     0.00000     0.0082644628
     1     -2.4215870318
     2     -1.5550954548
     3     -1.5498276881
     4     -1.5498099451
     5     -1.5456771026
     6     -0.9927375180
     7     -0.9468395230
     8     -0.9360211577
     9     -0.8854139625
    10     -0.8853151541
    11     -0.8656974009
    12     -0.5069459043
    13     -0.4504555688
    14     -0.4502859267
    15     -0.4393554623
    16     -0.4320103415
    17     -0.4288233551
    18     -0.4152201312
    19     -0.3717519436
    20     -0.3715321216
    21     -0.2724247309
    22     -0.2068919841
    23     -0.2068860114
    24     -0.1861950286
    25     -0.1048572260
    26     -0.0745124555
    27     -0.0697884099
    28     -0.0452092181
    29      0.0031721190
    30      0.0038491085
    31      0.0498944306
    32      0.0886127208
    33      0.2872081193
    34      0.3119894306
    35      0.3132632900
    36      0.3986384481
    37      0.4178366823
    38      0.4252348705
    39      0.4982492193
    40      0.5242482370
    41      0.6942824999
    42      0.7086444572
    43      0.7127769199
    44      0.8484822633
    45      0.8493612743
    46      0.8702447304
    47      1.1000596174
    48      1.2095416085
    49      1.2118970217
    50      1.2815084102
    51      1.2853347751
    52      1.2915034813
    53      1.3252688016
    54      1.3286989658
    55      1.3477412310
    56      1.4868040881
    57      1.5659880931
    58      1.5695587216
    59      1.6321680533
    60      1.8489794318
    61      1.8493575019
    62      2.0624445449
    63      2.1487466615
    64      2.1787749175
    65      2.4698863010
    66      2.4844750641
    67      2.5848141802
    68      2.7022477824
    69      2.7120496048
    70      2.9132426634
    71      4.2690745832
    72      4.6340416991
    44     0.42569     0.03193     0.00000     0.0082644628
     1     -2.4215866353
     2     -1.5550793585
     3     -1.5498487341
     4     -1.5498089256
     5     -1.5456875387
     6     -0.9925728034
     7     -0.9467970436
     8     -0.9361875052
     9     -0.8853977819
    10     -0.8851768049
    11     -0.8657694603
    12     -0.5069627527
    13     -0.4506700259
    14     -0.4502850728
    15     -0.4423304295
    16     -0.4321611806
    17     -0.4273194449
    18     -0.4135510901
    19     -0.3724857424
    20     -0.3719998878
    21     -0.2717674467
    22     -0.2068929885
    23     -0.2068779786
    24     -0.1854765285
    25     -0.1044780825
    26     -0.0742328689
    27     -0.0693105541
    28     -0.0448166171
    29      0.0023776754
    30      0.0038745189
    31      0.0506581553
    32      0.0884803405
    33      0.2876032274
    34      0.3105879112
    35      0.3134375450
    36      0.3935413480
    37      0.4171036322
    38      0.4305681570
    39      0.4995847820
    40      0.5249041858
    41      0.6950930262
    42      0.7038693069
    43      0.7127691619
    44      0.8481033723
    45      0.8500811728
    46      0.8742290484
    47      1.0999722273
    48      1.2045563229
    49      1.2096231951
    50      1.2778770438
    51      1.2853752492
    52      1.2938400934
    53      1.3251781550
    54      1.3322901163
    55      1.3490938373
    56      1.4880265659
    57      1.5643024973
    58      1.5676273686
    59      1.6312078984
    60      1.8494225951
    61      1.8503534423
    62      2.0620893064
    63      2.1519399518
    64      2.1757896395
    65      2.4584128248
    66      2.4866669433
    67      2.6002019583
    68      2.6892008652
    69      2.7108865164
    70      2.9088342159
    71      4.2675690689
    72      4.6096207184
    45     0.42569     0.04257     0.00000     0.0082644628
     1     -2.4215860844
     2     -1.5550569018
     3     -1.5498779952
     4     -1.5498075055
     5     -1.5457021189
     6     -0.9923429400
     7     -0.9467386708
     8     -0.9364174767
     9     -0.8853752783
    10     -0.8849857154
    11     -0.8658693025
    12     -0.5069861922
    13     -0.4509763116
    14     -0.4502839096
    15     -0.4454206852
    16     -0.4323707902
    17     -0.4261434906
    18     -0.4113624753
    19     -0.3734835350
    20     -0.3726412291
    21     -0.2708619765
    22     -0.2068943271
    23     -0.2068637786
    24     -0.1844995245
    25     -0.1039435627
    26     -0.0738443789
    27     -0.0686422034
    28     -0.0442700201
    29      0.0013098895
    30      0.0039100371
    31      0.0516841876
    32      0.0882969561
    33      0.2881532712
    34      0.3086546926
    35      0.3136807902
    36      0.3882696058
    37      0.4161110276
    38      0.4361693940
    39      0.5014304391
    40      0.5257221553
    41      0.6962040880
    42      0.6978018611
    43      0.7127375044
    44      0.8475767662
    45      0.8510927866
    46      0.8793019408
    47      1.0998194035
    48      1.1981355470
    49      1.2066902606
    50      1.2735066931
    51      1.2854345853
    52      1.2966110811
    53      1.3250508406
    54      1.3365919938
    55      1.3506439206
    56      1.4897934406
    57      1.5619513456
    58      1.5647652865
    59      1.6300873272
    60      1.8498808010
    61      1.8517274883
    62      2.0616251769
    63      2.1563330766
    64      2.1717655513
    65      2.4465477772
    66      2.4897043188
    67      2.6169109985
    68      2.6715874126
    69      2.7092521651
    70      2.9031785995
    71      4.2657602921
    72      4.5768349450
    46     0.42569     0.05321     0.00000     0.0082644628
     1     -2.4215853832
     2     -1.5550281632
     3     -1.5499152709
     4     -1.5498056916
     5     -1.5457208124
     6     -0.9920486606
     7     -0.9466655009
     8     -0.9367082823
     9     -0.8853465989
    10     -0.8847443655
    11     -0.8659958954
    12     -0.5070160829
    13     -0.4513803040
    14     -0.4502824685
    15     -0.4485670665
    16     -0.4326376250
    17     -0.4252052975
    18     -0.4088064710
    19     -0.3747176049
    20     -0.3734436975
    21     -0.2697219660
    22     -0.2068959354
    23     -0.2068405647
    24     -0.1832909359
    25     -0.1032502519
    26     -0.0733496662
    27     -0.0677842129
    28     -0.0435724486
    29      0.0000043911
    30      0.0039556047
    31      0.0529380893
    32      0.0880644990
    33      0.2888551441
    34      0.3062161568
    35      0.3139924442
    36      0.3829687833
    37      0.4148885124
    38      0.4418918405
    39      0.5037653746
    40      0.5266000707
    41      0.6908912412
    42      0.6975927069
    43      0.7126612829
    44      0.8469065629
    45      0.8523998612
    46      0.8851277565
    47      1.0995704952
    48      1.1906136897
    49      1.2032882521
    50      1.2686835822
    51      1.2855069737
    52      1.2995395909
    53      1.3248864108
    54      1.3413146128
    55      1.3521488924
    56      1.4921286413
    57      1.5589434666
    58      1.5608567140
    59      1.6289903969
    60      1.8502085351
    61      1.8534596597
    62      2.0610832244
    63      2.1618494667
    64      2.1668498704
    65      2.4352436611
    66      2.4935574909
    67      2.6333083649
    68      2.6499990135
    69      2.7071422725
    70      2.8968317919
    71      4.2639264528
    72      4.5369468957
    47     0.42569     0.06385     0.00000     0.0082644628
     1     -2.4215845372
     2     -1.5549932431
     3     -1.5499603067
     4     -1.5498034932
     5     -1.5457435796
     6     -0.9916909006
     7     -0.9465789403
     8     -0.9370565017
     9     -0.8853119303
    10     -0.8844557848
    11     -0.8661479237
    12     -0.5070522564
    13     -0.4518892913
    14     -0.4517359854
    15     -0.4502807893
    16     -0.4329597256
    17     -0.4244075177
    18     -0.4060175943
    19     -0.3761546784
    20     -0.3743926519
    21     -0.2683635991
    22     -0.2068977353
    23     -0.2068048260
    24     -0.1818827909
    25     -0.1023942078
    26     -0.0727519266
    27     -0.0667378733
    28     -0.0427277557
    29     -0.0015020482
    30      0.0040111436
    31      0.0543845366
    32      0.0877854296
    33      0.2897048502
    34      0.3033030644
    35      0.3143719365
    36      0.3776995707
    37      0.4134695950
    38      0.4476732718
    39      0.5065664962
    40      0.5274047598
    41      0.6835765102
    42      0.6992302811
    43      0.7125141586
    44      0.8460984158
    45      0.8540071952
    46      0.8914140769
    47      1.0991862346
    48      1.1822744244
    49      1.1996048166
    50      1.2635856980
    51      1.2855876427
    52      1.3024147217
    53      1.3246842335
    54      1.3462723925
    55      1.3534002008
    56      1.4950271742
    57      1.5552903947
    58      1.5558125330
    59      1.6280969872
    60      1.8502403104
    61      1.8555246883
    62      2.0605005836
    63      2.1612174263
    64      2.1683932985
    65      2.4249377998
    66      2.4981902938
    67      2.6251190224
    68      2.6480399294
    69      2.7045539810
    70      2.8905480304
    71      4.2623963542
    72      4.4914037441
    48     0.42569     0.07450     0.00000     0.0082644628
     1     -2.4215835531
     2     -1.5549522646
     3     -1.5500127971
     4     -1.5498009210
     5     -1.5457703714
     6     -0.9912707941
     7     -0.9464807020
     8     -0.9374581887
     9     -0.8852714964
    10     -0.8841234535
    11     -0.8663237996
    12     -0.5070945247
    13     -0.4549052590
    14     -0.4525117195
    15     -0.4502789192
    16     -0.4333347397
    17     -0.4236791470
    18     -0.4030933266
    19     -0.3777573692
    20     -0.3754720087
    21     -0.2668048479
    22     -0.2068996377
    23     -0.2067524936
    24     -0.1803106501
    25     -0.1013713131
    26     -0.0720548077
    27     -0.0655049323
    28     -0.0417406036
    29     -0.0031743082
    30      0.0040765540
    31      0.0559900593
    32      0.0874627212
    33      0.2906974955
    34      0.2999488405
    35      0.3148188230
    36      0.3724940569
    37      0.4118896514
    38      0.4534796979
    39      0.5098098526
    40      0.5279722799
    41      0.6762695608
    42      0.7010832085
    43      0.7122643656
    44      0.8451597218
    45      0.8559206233
    46      0.8979277160
    47      1.0986195783
    48      1.1733541314
    49      1.1958125620
    50      1.2583216467
    51      1.2856715908
    52      1.3050870256
    53      1.3244434464
    54      1.3513465995
    55      1.3542528825
    56      1.4984430371
    57      1.5496021653
    58      1.5510064644
    59      1.6275514195
    60      1.8498034229
    61      1.8578923445
    62      2.0599187273
    63      2.1550574682
    64      2.1758531894
    65      2.4158084366
    66      2.5035612958
    67      2.5976788514
    68      2.6598040326
    69      2.7014879901
    70      2.8852526044
    71      4.2615292516
    72      4.4417431544
    49     0.42569     0.08514     0.00000     0.0082644628
     1     -2.4215824386
     2     -1.5549053732
     3     -1.5500723883
     4     -1.5497979879
     5     -1.5458011289
     6     -0.9907896679
     7     -0.9463728012
     8     -0.9379089812
     9     -0.8852255568
    10     -0.8837511981
    11     -0.8665216744
    12     -0.5071426898
    13     -0.4580588955
    14     -0.4532568343
    15     -0.4502769122
    16     -0.4337599455
    17     -0.4229754624
    18     -0.4000993389
    19     -0.3794856795
    20     -0.3766649425
    21     -0.2650647747
    22     -0.2069015459
    23     -0.2066790637
    24     -0.1786119900
    25     -0.1001777145
    26     -0.0712623919
    27     -0.0640875641
    28     -0.0406164383
    29     -0.0049804447
    30      0.0041517113
    31      0.0577245059
    32      0.0870998412
    33      0.2918272718
    34      0.2961880038
    35      0.3153329113
    36      0.3673726997
    37      0.4101843860
    38      0.4592883792
    39      0.5134715780
    40      0.5281119210
    41      0.6693522748
    42      0.7031135741
    43      0.7118750969
    44      0.8440998089
    45      0.8581469914
    46      0.9044927249
    47      1.0978176237
    48      1.1640544818
    49      1.1920642746
    50      1.2529579206
    51      1.2857534376
    52      1.3074545063
    53      1.3241628963
    54      1.3546360428
    55      1.3564583458
    56      1.5022862861
    57      1.5422704056
    58      1.5461088882
    59      1.6274448057
    60      1.8487306194
    61      1.8605278517
    62      2.0593816960
    63      2.1485584599
    64      2.1841076517
    65      2.4078965048
    66      2.5096249877
    67      2.5684167323
    68      2.6673734132
    69      2.6979511556
    70      2.8819027902
    71      4.2616922164
    72      4.3895091281
    50     0.42569     0.09578     0.00000     0.0082644628
     1     -2.4215812028
     2     -1.5548527367
     3     -1.5501386815
     4     -1.5497947085
     5     -1.5458357829
     6     -0.9902490354
     7     -0.9462575486
     8     -0.9384042099
     9     -0.8851744040
    10     -0.8833430898
    11     -0.8667394546
    12     -0.5071965563
    13     -0.4611846245
    14     -0.4541341974
    15     -0.4502748280
    16     -0.4342322802
    17     -0.4222700401
    18     -0.3970798814
    19     -0.3812984940
    20     -0.3779544846
    21     -0.2631629340
    22     -0.2069033595
    23     -0.2065797346
    24     -0.1768246381
    25     -0.0988103357
    26     -0.0703792105
    27     -0.0624883024
    28     -0.0393614610
    29     -0.0068922410
    30      0.0042364631
    31      0.0595615347
    32      0.0867007304
    33      0.2920548543
    34      0.2930874291
    35      0.3159143858
    36      0.3623505172
    37      0.4083887684
    38      0.4650816216
    39      0.5175283933
    40      0.5276176200
    41      0.6631738648
    42      0.7052798759
    43      0.7113050805
    44      0.8429300690
    45      0.8606941197
    46      0.9109808099
    47      1.0967251126
    48      1.1545540725
    49      1.1884921141
    50      1.2475352587
    51      1.2858275297
    52      1.3094491624
    53      1.3238410611
    54      1.3545469521
    55      1.3615523568
    56      1.5064293762
    57      1.5339341006
    58      1.5406178015
    59      1.6278158789
    60      1.8468719093
    61      1.8633924005
    62      2.0589344040
    63      2.1418934386
    64      2.1930318567
    65      2.4011686607
    66      2.5163328690
    67      2.5380423937
    68      2.6698357890
    69      2.6939593330
    70      2.8811898908
    71      4.2632365069
    72      4.3361848418
    51     0.42569     0.10642     0.00000     0.0082644628
     1     -2.4215798558
     2     -1.5547945458
     3     -1.5502112364
     4     -1.5497910992
     5     -1.5458742533
     6     -0.9896505894
     7     -0.9461375406
     8     -0.9389389993
     9     -0.8851183613
    10     -0.8829033495
    11     -0.8669748203
    12     -0.5072559439
    13     -0.4642725666
    14     -0.4551530706
    15     -0.4502727311
    16     -0.4347483701
    17     -0.4215479258
    18     -0.3940658732
    19     -0.3831550287
    20     -0.3793239972
    21     -0.2611189001
    22     -0.2069049776
    23     -0.2064495555
    24     -0.1749853329
    25     -0.0972674421
    26     -0.0694102731
    27     -0.0607099586
    28     -0.0379825986
    29     -0.0088851556
    30      0.0043306255
    31      0.0614785032
    32      0.0862697801
    33      0.2875824750
    34      0.2944702351
    35      0.3165639261
    36      0.3574396861
    37      0.4065363697
    38      0.4708441652
    39      0.5219577740
    40      0.5262904027
    41      0.6580388645
    42      0.7075377770
    43      0.7105093990
    44      0.8416639959
    45      0.8635707531
    46      0.9173001079
    47      1.0952898865
    48      1.1450164754
    49      1.1852074660
    50      1.2420782688
    51      1.2858881490
    52      1.3110266843
    53      1.3234759493
    54      1.3540349139
    55      1.3665875231
    56      1.5107193344
    57      1.5247644176
    58      1.5345562691
    59      1.6286645245
    60      1.8441051018
    61      1.8664437792
    62      2.0586211121
    63      2.1352083120
    64      2.2025047974
    65      2.3955533370
    66      2.5072096916
    67      2.5236343668
    68      2.6669069222
    69      2.6895400975
    70      2.8831961736
    71      4.2664747523
    72      4.2831449617
    52     0.42569     0.11706     0.00000     0.0082644628
     1     -2.4215784086
     2     -1.5547310135
     3     -1.5502895755
     4     -1.5497871780
     5     -1.5459164484
     6     -0.9889961950
     7     -0.9460156470
     8     -0.9395083596
     9     -0.8850577805
    10     -0.8824362646
    11     -0.8672252481
    12     -0.5073207032
    13     -0.4673144591
    14     -0.4563216746
    15     -0.4502706894
    16     -0.4353045645
    17     -0.4208012047
    18     -0.3910800226
    19     -0.3850162075
    20     -0.3807575194
    21     -0.2589519216
    22     -0.2069063027
    23     -0.2062835828
    24     -0.1731284648
    25     -0.0955492145
    26     -0.0683610954
    27     -0.0587555409
    28     -0.0364874717
    29     -0.0109379645
    30      0.0044339784
    31      0.0634560564
    32      0.0858118085
    33      0.2828020537
    34      0.2959669207
    35      0.3172828080
    36      0.3526507484
    37      0.4046589967
    38      0.4765619653
    39      0.5239715224
    40      0.5267379179
    41      0.6541835043
    42      0.7094406086
    43      0.7098408820
    44      0.8403170883
    45      0.8667864921
    46      0.9233848898
    47      1.0934701936
    48      1.1355948221
    49      1.1822996519
    50      1.2366013337
    51      1.2859297900
    52      1.3121591836
    53      1.3230649709
    54      1.3531817184
    55      1.3715312557
    56      1.5149646935
    57      1.5149909367
    58      1.5279502481
    59      1.6299682951
    60      1.8403449035
    61      1.8696371379
    62      2.0584841221
    63      2.1286144716
    64      2.2124157078
    65      2.3909622982
    66      2.4764978536
    67      2.5314775530
    68      2.6590246218
    69      2.6847348618
    70      2.8872863079
    71      4.2316258204
    72      4.2716609117
    53     0.42569     0.12771     0.00000     0.0082644628
     1     -2.4215768733
     2     -1.5546623758
     3     -1.5503731871
     4     -1.5497829648
     5     -1.5459622638
     6     -0.9882878811
     7     -0.9458949941
     8     -0.9401072645
     9     -0.8849930392
    10     -0.8819461167
    11     -0.8674880375
    12     -0.5073907319
    13     -0.4703031823
    14     -0.4576463634
    15     -0.4502687734
    16     -0.4358969702
    17     -0.4200263439
    18     -0.3881398691
    19     -0.3868459382
    20     -0.3822399977
    21     -0.2566806900
    22     -0.2069072435
    23     -0.2060770411
    24     -0.1712850436
    25     -0.0936582820
    26     -0.0672377164
    27     -0.0566281889
    28     -0.0348843633
    29     -0.0130322922
    30      0.0045462611
    31      0.0654776100
    32      0.0853320355
    33      0.2777424985
    34      0.2975676111
    35      0.3180729829
    36      0.3479932106
    37      0.4027865283
    38      0.4822215841
    39      0.5205776056
    40      0.5318476168
    41      0.6517483108
    42      0.7080501953
    43      0.7121415525
    44      0.8389065754
    45      0.8703517028
    46      0.9291869734
    47      1.0912429655
    48      1.1264336963
    49      1.1798333956
    50      1.2311125454
    51      1.2859474958
    52      1.3128302109
    53      1.3226047708
    54      1.3520837865
    55      1.3763558767
    56      1.5047508583
    57      1.5190771010
    58      1.5208285196
    59      1.6316954617
    60      1.8355504984
    61      1.8729259065
    62      2.0585627190
    63      2.1221858962
    64      2.2226686977
    65      2.3873032022
    66      2.4464008742
    67      2.5398096496
    68      2.6471084964
    69      2.6795998995
    70      2.8923447040
    71      4.1827088847
    72      4.2789748584
    54     0.42569     0.13835     0.00000     0.0082644628
     1     -2.4215752623
     2     -1.5545888917
     3     -1.5504615299
     4     -1.5497784807
     5     -1.5460115813
     6     -0.9875278326
     7     -0.9457789438
     8     -0.9407307169
     9     -0.8849245387
    10     -0.8814371242
    11     -0.8677603422
    12     -0.5074659938
    13     -0.4732324559
    14     -0.4591307791
    15     -0.4502670541
    16     -0.4365214886
    17     -0.4192226159
    18     -0.3886122428
    19     -0.3852595609
    20     -0.3837574196
    21     -0.2543232052
    22     -0.2069077181
    23     -0.2058254870
    24     -0.1694819273
    25     -0.0916001524
    26     -0.0660467018
    27     -0.0543311280
    28     -0.0331821865
    29     -0.0151521398
    30      0.0046671667
    31      0.0675288381
    32      0.0848360585
    33      0.2724303018
    34      0.2992612463
    35      0.3189371252
    36      0.3434758492
    37      0.4009468816
    38      0.4878098780
    39      0.5161220982
    40      0.5372661053
    41      0.6507625403
    42      0.7062903852
    43      0.7143917888
    44      0.8374509272
    45      0.8742773992
    46      0.9346688332
    47      1.0886114223
    48      1.1176690986
    49      1.1778463057
    50      1.2256166032
    51      1.2859372471
    52      1.3130313703
    53      1.3220910130
    54      1.3508385231
    55      1.3810360167
    56      1.4943368476
    57      1.5132226020
    58      1.5228148850
    59      1.6338129229
    60      1.8297314407
    61      1.8762628807
    62      2.0588923562
    63      2.1159600229
    64      2.2331849564
    65      2.3844862053
    66      2.4173238467
    67      2.5485773345
    68      2.6322083056
    69      2.6742059010
    70      2.8971351139
    71      4.1373115796
    72      4.2885130394
    55     0.42569     0.14899     0.00000     0.0082644628
     1     -2.4215735888
     2     -1.5545108436
     3     -1.5505540367
     4     -1.5497737485
     5     -1.5460642679
     6     -0.9867183817
     7     -0.9456710660
     8     -0.9413738013
     9     -0.8848527014
    10     -0.8809133968
    11     -0.8680392060
    12     -0.5075465402
    13     -0.4760966392
    14     -0.4607750821
    15     -0.4502656019
    16     -0.4371738522
    17     -0.4183911514
    18     -0.3902881757
    19     -0.3852968730
    20     -0.3824508958
    21     -0.2518967122
    22     -0.2069076563
    23     -0.2055249708
    24     -0.1677413411
    25     -0.0893834868
    26     -0.0647951315
    27     -0.0518676506
    28     -0.0313904519
    29     -0.0172834606
    30      0.0047963369
    31      0.0695972173
    32      0.0843298276
    33      0.2668896037
    34      0.3010354950
    35      0.3198786445
    36      0.3391068634
    37      0.3991660594
    38      0.4933138427
    39      0.5107110682
    40      0.5429729227
    41      0.6511525602
    42      0.7041162747
    43      0.7165442165
    44      0.8359691168
    45      0.8785750949
    46      0.9397981172
    47      1.0856101669
    48      1.1094271131
    49      1.1763481532
    50      1.2201171491
    51      1.2858963930
    52      1.3127600210
    53      1.3215180981
    54      1.3495352863
    55      1.3855463281
    56      1.4839248562
    57      1.5051666799
    58      1.5260473668
    59      1.6362899627
    60      1.8229515127
    61      1.8796014809
    62      2.0595040605
    63      2.1099412557
    64      2.2439024231
    65      2.3824266367
    66      2.3895846486
    67      2.5577268740
    68      2.6152760181
    69      2.6686359233
    70      2.9005470255
    71      4.0961799337
    72      4.3002859987
    56     0.42569     0.15963     0.00000     0.0082644628
     1     -2.4215718660
     2     -1.5544285377
     3     -1.5506501183
     4     -1.5497687925
     5     -1.5461201742
     6     -0.9858620001
     7     -0.9455751066
     8     -0.9420317249
     9     -0.8847779681
    10     -0.8803789014
    11     -0.8683216028
    12     -0.5076325338
    13     -0.4788905947
    14     -0.4625753603
    15     -0.4502644852
    16     -0.4378496618
    17     -0.4175343534
    18     -0.3918524592
    19     -0.3868465506
    20     -0.3797239299
    21     -0.2494176917
    22     -0.2069070017
    23     -0.2051721947
    24     -0.1660806916
    25     -0.0870201800
    26     -0.0634905724
    27     -0.0492411244
    28     -0.0295192355
    29     -0.0194138008
    30      0.0049333555
    31      0.0716716428
    32      0.0838196232
    33      0.2611424054
    34      0.3028766725
    35      0.3209016539
    36      0.3348939384
    37      0.3974682396
    38      0.4987205509
    39      0.5045160162
    40      0.5489477961
    41      0.6527717782
    42      0.7014881931
    43      0.7185532185
    44      0.8344796150
    45      0.8832566184
    46      0.9445432294
    47      1.0823066620
    48      1.1018217967
    49      1.1753231228
    50      1.2146187510
    51      1.2858241021
    52      1.3120177185
    53      1.3208787899
    54      1.3482502545
    55      1.3898588464
    56      1.4736998210
    57      1.4966975846
    58      1.5286227700
    59      1.6390994266
    60      1.8153300054
    61      1.8828971728
    62      2.0604240207
    63      2.1041059871
    64      2.2547733322
    65      2.3634193434
    66      2.3810451654
    67      2.5672041187
    68      2.5970920289
    69      2.6629818936
    70      2.9016968138
    71      4.0598796304
    72      4.3142227384
    57     0.42569     0.17028     0.00000     0.0082644628
     1     -2.4215701073
     2     -1.5543423044
     3     -1.5507491677
     4     -1.5497636383
     5     -1.5461791326
     6     -0.9849612908
     7     -0.9454949474
     8     -0.9426998473
     9     -0.8847007960
    10     -0.8798374393
    11     -0.8686044825
    12     -0.5077242769
    13     -0.4816095930
    14     -0.4645233055
    15     -0.4502637682
    16     -0.4385444235
    17     -0.4166555221
    18     -0.3932897718
    19     -0.3883957172
    20     -0.3770873320
    21     -0.2469018840
    22     -0.2069057129
    23     -0.2047646622
    24     -0.1645126627
    25     -0.0845252336
    26     -0.0621410372
    27     -0.0464550324
    28     -0.0275791446
    29     -0.0215320052
    30      0.0050777429
    31      0.0737421191
    32      0.0833120366
    33      0.2552088845
    34      0.3047696749
    35      0.3220108933
    36      0.3308442557
    37      0.3958758785
    38      0.4977383623
    39      0.5040171470
    40      0.5551705382
    41      0.6554377065
    42      0.6983741400
    43      0.7203762420
    44      0.8329991237
    45      0.8883338863
    46      0.9488697160
    47      1.0787992962
    48      1.0949527438
    49      1.1747349009
    50      1.2091285910
    51      1.2857218029
    52      1.3108091641
    53      1.3201637194
    54      1.3470441451
    55      1.3939389764
    56      1.4638281823
    57      1.4878548853
    58      1.5303925878
    59      1.6422175556
    60      1.8070397382
    61      1.8861090088
    62      2.0616733120
    63      2.0984082614
    64      2.2657603789
    65      2.3389898286
    66      2.3802664082
    67      2.5769544016
    68      2.5782747348
    69      2.6573401018
    70      2.8999505092
    71      4.0287854464
    72      4.3301810900
    58     0.42569     0.18092     0.00000     0.0082644628
     1     -2.4215683261
     2     -1.5542524995
     3     -1.5508505635
     4     -1.5497583127
     5     -1.5462409558
     6     -0.9840189814
     7     -0.9454345600
     8     -0.9433737033
     9     -0.8846216560
    10     -0.8792926300
    11     -0.8688848206
    12     -0.5078222449
    13     -0.4842492448
    14     -0.4666062068
    15     -0.4502635096
    16     -0.4392535839
    17     -0.4157586055
    18     -0.3945906643
    19     -0.3899346544
    20     -0.3745485858
    21     -0.2443643343
    22     -0.2069037646
    23     -0.2043008163
    24     -0.1630455516
    25     -0.0819164400
    26     -0.0607549315
    27     -0.0435130447
    28     -0.0255812834
    29     -0.0236279802
    30      0.0052289496
    31      0.0757995145
    32      0.0828139569
    33      0.2491077696
    34      0.3066979515
    35      0.3232115995
    36      0.3269644667
    37      0.3944097977
    38      0.4905797609
    39      0.5091908832
    40      0.5616209390
    41      0.6589622644
    42      0.6947520835
    43      0.7219752851
    44      0.8315410890
    45      0.8938186310
    46      0.9527373766
    47      1.0752132598
    48      1.0889027402
    49      1.1745333113
    50      1.2036578247
    51      1.2855935712
    52      1.3091415101
    53      1.3193607198
    54      1.3459618415
    55      1.3977379275
    56      1.4544625035
    57      1.4786811542
    58      1.5312105325
    59      1.6456232336
    60      1.7983010650
    61      1.8892012156
    62      2.0632677130
    63      2.0927855294
    64      2.2768323527
    65      2.3163925606
    66      2.3800165225
    67      2.5593154925
    68      2.5869223815
    69      2.6518062744
    70      2.8949196958
    71      4.0030726974
    72      4.3479626086
    59     0.42569     0.19156     0.00000     0.0082644628
     1     -2.4215665353
     2     -1.5541595044
     3     -1.5509536743
     4     -1.5497528440
     5     -1.5463054344
     6     -0.9830379171
     7     -0.9453979524
     8     -0.9440490170
     9     -0.8845410301
    10     -0.8787479035
    11     -0.8691596713
    12     -0.5079271257
    13     -0.4868054517
    14     -0.4688072546
    15     -0.4502637607
    16     -0.4399725646
    17     -0.4148480250
    18     -0.3957511273
    19     -0.3914545909
    20     -0.3721141011
    21     -0.2418194460
    22     -0.2069011479
    23     -0.2037801611
    24     -0.1616837862
    25     -0.0792139190
    26     -0.0593409902
    27     -0.0404191279
    28     -0.0256925045
    29     -0.0235372151
    30      0.0053863504
    31      0.0778353723
    32      0.0823325657
    33      0.2428567346
    34      0.3086435383
    35      0.3232606416
    36      0.3245093224
    37      0.3930892214
    38      0.4832239853
    39      0.5142291825
    40      0.5682786289
    41      0.6631698270
    42      0.6906118783
    43      0.7233185243
    44      0.8301140915
    45      0.8997220768
    46      0.9560983354
    47      1.0716954978
    48      1.0837358696
    49      1.1746608839
    50      1.1982225362
    51      1.2854464145
    52      1.3070239176
    53      1.3184539285
    54      1.3450332211
    55      1.4011761435
    56      1.4457570347
    57      1.4692224969
    58      1.5309340583
    59      1.6492970521
    60      1.7893711413
    61      1.8921447124
    62      2.0652175687
    63      2.0871642470
    64      2.2879599875
    65      2.2956675277
    66      2.3802199762
    67      2.5406137609
    68      2.5970518705
    69      2.6464708441
    70      2.8864480403
    71      3.9827166089
    72      4.3673301015
    60     0.42569     0.20220     0.00000     0.0082644628
     1     -2.4215647475
     2     -1.5540637280
     3     -1.5510578621
     4     -1.5497472614
     5     -1.5463723348
     6     -0.9820210567
     7     -0.9453891089
     8     -0.9447217114
     9     -0.8844594088
    10     -0.8782064963
    11     -0.8694262241
    12     -0.5080398674
    13     -0.4892743689
    14     -0.4711060959
    15     -0.4502645640
    16     -0.4406967947
    17     -0.4139285487
    18     -0.3967718818
    19     -0.3929476289
    20     -0.3697892738
    21     -0.2392810364
    22     -0.2068978707
    23     -0.2032033624
    24     -0.1604285506
    25     -0.0764395673
    26     -0.0579082058
    27     -0.0371776931
    28     -0.0277170756
    29     -0.0214589209
    30      0.0055492390
    31      0.0798417662
    32      0.0818753451
    33      0.2364727766
    34      0.3105871861
    35      0.3197382008
    36      0.3259096815
    37      0.3919317286
    38      0.4758290358
    39      0.5191197219
    40      0.5751228844
    41      0.6679046083
    42      0.6859565762
    43      0.7243819909
    44      0.8287202642
    45      0.9060545600
    46      0.9588967590
    47      1.0684091298
    48      1.0794963661
    49      1.1750581832
    50      1.1928442050
    51      1.2852904036
    52      1.3044672954
    53      1.3174225730
    54      1.3442746980
    55      1.4041030136
    56      1.4379086649
    57      1.4595294518
    58      1.5294299284
    59      1.6532203807
    60      1.7805279820
    61      1.8949184094
    62      2.0675276624
    63      2.0814652825
    64      2.2768069752
    65      2.2991125520
    66      2.3807953697
    67      2.5225058196
    68      2.6072856825
    69      2.6414149105
    70      2.8745888205
    71      3.9675050251
    72      4.3880257839
    61     0.42569     0.21285     0.00000     0.0082644628
     1     -2.4215629746
     2     -1.5539656076
     3     -1.5511624861
     4     -1.5497415957
     5     -1.5464413969
     6     -0.9809714688
     7     -0.9454119239
     8     -0.9453879134
     9     -0.8843772886
    10     -0.8776714527
    11     -0.8696818615
    12     -0.5081617367
    13     -0.4916523784
    14     -0.4734795437
    15     -0.4502659511
    16     -0.4414217414
    17     -0.4130051942
    18     -0.3976574988
    19     -0.3944066686
    20     -0.3675785168
    21     -0.2367623878
    22     -0.2068939563
    23     -0.2025723232
    24     -0.1592784505
    25     -0.0736164808
    26     -0.0564657501
    27     -0.0337937882
    28     -0.0296937827
    29     -0.0193587528
    30      0.0057168235
    31      0.0814501041
    32      0.0818111919
    33      0.2299725471
    34      0.3125086172
    35      0.3164018335
    36      0.3274180613
    37      0.3909530821
    38      0.4685256649
    39      0.5238505302
    40      0.5821323478
    41      0.6730314207
    42      0.6808029714
    43      0.7251511587
    44      0.8273539434
    45      0.9128250901
    46      0.9610713966
    47      1.0655265346
    48      1.0762083933
    49      1.1756674439
    50      1.1875496333
    51      1.2851386074
    52      1.3014841733
    53      1.3162393317
    54      1.3436911646
    55      1.4061968188
    56      1.4312590561
    57      1.4496583899
    58      1.5265845317
    59      1.6573745225
    60      1.7720495575
    61      1.8975101121
    62      2.0701970656
    63      2.0756092208
    64      2.2597636554
    65      2.3102554475
    66      2.3816498780
    67      2.5052873876
    68      2.6175655370
    69      2.6367071948
    70      2.8595712245
    71      3.9570663661
    72      4.4097881882
    62     0.42569     0.22349     0.00000     0.0082644628
     1     -2.4215612279
     2     -1.5538656109
     3     -1.5512669065
     4     -1.5497358782
     5     -1.5465123309
     6     -0.9798923309
     7     -0.9460439560
     8     -0.9454701303
     9     -0.8842951692
    10     -0.8771456276
    11     -0.8699242158
    12     -0.5082943888
    13     -0.4939360674
    14     -0.4759023347
    15     -0.4502679416
    16     -0.4421429381
    17     -0.4120831497
    18     -0.3984154604
    19     -0.3958253361
    20     -0.3654852813
    21     -0.2342762910
    22     -0.2068894435
    23     -0.2018902299
    24     -0.1582301583
    25     -0.0707684087
    26     -0.0550228926
    27     -0.0316151921
    28     -0.0302733396
    29     -0.0172493813
    30      0.0058882230
    31      0.0810650313
    32      0.0837364871
    33      0.2233726146
    34      0.3132554094
    35      0.3143869422
    36      0.3290392419
    37      0.3901668982
    38      0.4614190231
    39      0.5284100913
    40      0.5892846267
    41      0.6751813343
    42      0.6784333267
    43      0.7256222859
    44      0.8260007794
    45      0.9200408456
    46      0.9625622864
    47      1.0632195835
    48      1.0738767915
    49      1.1764346165
    50      1.1823703227
    51      1.2850068078
    52      1.2980886769
    53      1.3148681439
    54      1.3432781160
    55      1.4067928417
    56      1.4264697528
    57      1.4396735612
    58      1.5223181308
    59      1.6617399766
    60      1.7641896005
    61      1.8999168637
    62      2.0695216690
    63      2.0732189451
    64      2.2444585695
    65      2.3213488585
    66      2.3826716197
    67      2.4892323110
    68      2.6278320457
    69      2.6324020863
    70      2.8417568994
    71      3.9509098666
    72      4.4323662788
    63     0.42569     0.23413     0.00000     0.0082644628
     1     -2.4215595180
     2     -1.5537642374
     3     -1.5513704880
     4     -1.5497301419
     5     -1.5465848151
     6     -0.9787869325
     7     -0.9466863777
     8     -0.9455672238
     9     -0.8842135508
    10     -0.8766316920
    11     -0.8701512245
    12     -0.5084399504
    13     -0.4961222129
    14     -0.4783478402
    15     -0.4502705414
    16     -0.4428560112
    17     -0.4111677089
    18     -0.3990552604
    19     -0.3971979149
    20     -0.3635120776
    21     -0.2318350793
    22     -0.2068843848
    23     -0.2011615639
    24     -0.1572789960
    25     -0.0679192870
    26     -0.0535889162
    27     -0.0334742334
    28     -0.0266234485
    29     -0.0151437338
    30      0.0060624654
    31      0.0807287829
    32      0.0856107745
    33      0.2166896464
    34      0.3103018876
    35      0.3162012598
    36      0.3307769635
    37      0.3895841366
    38      0.4545914263
    39      0.5327874505
    40      0.5965557302
    41      0.6691344096
    42      0.6840083694
    43      0.7258033826
    44      0.8246375088
    45      0.9277066018
    46      0.9633221386
    47      1.0616460803
    48      1.0724886888
    49      1.1773101894
    50      1.1773413518
    51      1.2849129938
    52      1.2942965815
    53      1.3132613584
    54      1.3430238127
    55      1.4051322555
    56      1.4242773468
    57      1.4296499170
    58      1.5166001192
    59      1.6662958040
    60      1.7571537300
    61      1.9021445987
    62      2.0631385952
    63      2.0765803185
    64      2.2307882651
    65      2.3323473468
    66      2.3837193484
    67      2.4746094487
    68      2.6285387160
    69      2.6380248060
    70      2.8215922286
    71      3.9484714090
    72      4.4555296676
    64     0.42569     0.24477     0.00000     0.0082644628
     1     -2.4215578544
     2     -1.5536620207
     3     -1.5514726034
     4     -1.5497244203
     5     -1.5466584921
     6     -0.9776586805
     7     -0.9473119209
     8     -0.9457063841
     9     -0.8841329312
    10     -0.8761321392
    11     -0.8703611791
    12     -0.5086011135
    13     -0.4982077690
    14     -0.4807886694
    15     -0.4502737419
    16     -0.4435567035
    17     -0.4102642135
    18     -0.3995876104
    19     -0.3985192841
    20     -0.3616605039
    21     -0.2294506509
    22     -0.2068788452
    23     -0.2003920785
    24     -0.1564194316
    25     -0.0650928899
    26     -0.0521730354
    27     -0.0352640610
    28     -0.0228527526
    29     -0.0130549248
    30      0.0062384878
    31      0.0804506196
    32      0.0874274224
    33      0.2099405103
    34      0.3075432286
    35      0.3179314358
    36      0.3326334246
    37      0.3892124133
    38      0.4481052902
    39      0.5369723164
    40      0.6039192890
    41      0.6627158654
    42      0.6896664877
    43      0.7257147546
    44      0.8232325122
    45      0.9358240829
    46      0.9633306024
    47      1.0609337558
    48      1.0720157534
    49      1.1724998521
    50      1.1782491899
    51      1.2848766570
    52      1.2901254359
    53      1.3113562140
    54      1.3429113699
    55      1.4015552994
    56      1.4196767366
    57      1.4243048649
    58      1.5094606631
    59      1.6710190818
    60      1.7510809858
    61      1.9042070561
    62      2.0564115863
    63      2.0802617586
    64      2.2186317699
    65      2.3432001943
    66      2.3846105093
    67      2.4616980112
    68      2.6251408939
    69      2.6480826187
    70      2.7995631693
    71      3.9491574103
    72      4.4790743135
    65     0.42569     0.25541     0.00000     0.0082644628
     1     -2.4215562463
     2     -1.5535595307
     3     -1.5515726370
     4     -1.5497187481
     5     -1.5467329667
     6     -0.9765111114
     7     -0.9479175291
     8     -0.9458903944
     9     -0.8840538030
    10     -0.8756492918
    11     -0.8705527674
    12     -0.5087812340
    13     -0.5001898587
    14     -0.4831971374
    15     -0.4502775187
    16     -0.4442408958
    17     -0.4093780024
    18     -0.4000237899
    19     -0.3997848615
    20     -0.3599312883
    21     -0.2271344799
    22     -0.2068729004
    23     -0.1995887375
    24     -0.1556454802
    25     -0.0623126492
    26     -0.0507843158
    27     -0.0369778485
    28     -0.0189718620
    29     -0.0109961762
    30      0.0064151382
    31      0.0802406069
    32      0.0891800195
    33      0.2031423077
    34      0.3049803148
    35      0.3195590225
    36      0.3346087127
    37      0.3890551802
    38      0.4420058842
    39      0.5409551527
    40      0.6113454784
    41      0.6559884414
    42      0.6953270611
    43      0.7253892022
    44      0.8217471685
    45      0.9443912299
    46      0.9626066455
    47      1.0611662238
    48      1.0724167917
    49      1.1678832162
    50      1.1792106887
    51      1.2849179332
    52      1.2855947526
    53      1.3090709664
    54      1.3429206907
    55      1.3971621785
    56      1.4098617671
    57      1.4254056285
    58      1.5009942522
    59      1.6758844232
    60      1.7460354909
    61      1.9061240037
    62      2.0493127267
    63      2.0842370626
    64      2.2078571922
    65      2.3538522767
    66      2.3851153042
    67      2.4507948444
    68      2.6222177117
    69      2.6579438397
    70      2.7761580143
    71      3.9523810617
    72      4.5028235825
    66     0.42569     0.26606     0.00000     0.0082644628
     1     -2.4215547016
     2     -1.5534573753
     3     -1.5516699882
     4     -1.5497131607
     5     -1.5468078018
     6     -0.9753479107
     7     -0.9485003433
     8     -0.9461215590
     9     -0.8839766507
    10     -0.8751853088
    11     -0.8707251049
    12     -0.5089844139
    13     -0.5020657666
    14     -0.4855456105
    15     -0.4502818313
    16     -0.4449046266
    17     -0.4085143644
    18     -0.4009905520
    19     -0.4003751445
    20     -0.3583243453
    21     -0.2248976175
    22     -0.2068666353
    23     -0.1987596178
    24     -0.1549510128
    25     -0.0596017337
    26     -0.0494316000
    27     -0.0386084176
    28     -0.0149938848
    29     -0.0089807279
    30      0.0065911811
    31      0.0801098989
    32      0.0908623615
    33      0.1963123644
    34      0.3026128862
    35      0.3210682336
    36      0.3367001734
    37      0.3891108618
    38      0.4363238321
    39      0.5447272558
    40      0.6187995345
    41      0.6490220556
    42      0.7009171970
    43      0.7248720858
    44      0.8201378940
    45      0.9534013700
    46      0.9612132553
    47      1.0623764505
    48      1.0736403832
    49      1.1635271870
    50      1.1801570318
    51      1.2807262751
    52      1.2850566350
    53      1.3063017144
    54      1.3430301815
    55      1.3926297289
    56      1.4003348519
    57      1.4268512709
    58      1.4913533058
    59      1.6808635390
    60      1.7420101333
    61      1.9079189268
    62      2.0418386424
    63      2.0884729140
    64      2.1983279419
    65      2.3642452547
    66      2.3849808246
    67      2.4421906413
    68      2.6197646286
    69      2.6675468686
    70      2.7518406079
    71      3.9575882868
    72      4.5266249897
    67     0.42569     0.27670     0.00000     0.0082644628
     1     -2.4215532276
     2     -1.5533562027
     3     -1.5517640744
     4     -1.5497076943
     5     -1.5468825166
     6     -0.9741729418
     7     -0.9490576987
     8     -0.9464016196
     9     -0.8839019477
    10     -0.8747421921
    11     -0.8708777535
    12     -0.5092155289
    13     -0.5038329347
    14     -0.4878067828
    15     -0.4502866230
    16     -0.4455441091
    17     -0.4076784952
    18     -0.4021327031
    19     -0.4006527233
    20     -0.3568388483
    21     -0.2227506811
    22     -0.2068601416
    23     -0.1979137765
    24     -0.1543299830
    25     -0.0569836327
    26     -0.0481234384
    27     -0.0401474453
    28     -0.0109350615
    29     -0.0070217394
    30      0.0067653049
    31      0.0800711265
    32      0.0924684474
    33      0.1894682065
    34      0.3004394983
    35      0.3224468485
    36      0.3389017227
    37      0.3893720819
    38      0.4310773884
    39      0.5482808134
    40      0.6262397042
    41      0.6418920873
    42      0.7063707162
    43      0.7242215851
    44      0.8183586636
    45      0.9592516754
    46      0.9628422589
    47      1.0645503850
    48      1.0756272765
    49      1.1594639758
    50      1.1810529386
    51      1.2755443393
    52      1.2853112182
    53      1.3029223490
    54      1.3432182082
    55      1.3882205346
    56      1.3912486685
    57      1.4283270083
    58      1.4807338236
    59      1.6859248149
    60      1.7389401610
    61      1.9096164122
    62      2.0340131953
    63      2.0929285783
    64      2.1899084509
    65      2.3743189031
    66      2.3840241226
    67      2.4360771480
    68      2.6177648916
    69      2.6768307645
    70      2.7270339075
    71      3.9642735358
    72      4.5503433343
    68     0.42569     0.28734     0.00000     0.0082644628
     1     -2.4215518310
     2     -1.5532567026
     3     -1.5518543347
     4     -1.5497023855
     5     -1.5469565838
     6     -0.9729902905
     7     -0.9495871206
     8     -0.9467316669
     9     -0.8838301539
    10     -0.8743217936
    11     -0.8710107254
    12     -0.5094801232
    13     -0.5054889595
    14     -0.4899539793
    15     -0.4502918213
    16     -0.4461557464
    17     -0.4068754566
    18     -0.4032080632
    19     -0.4008670330
    20     -0.3554733162
    21     -0.2207038357
    22     -0.2068535166
    23     -0.1970610870
    24     -0.1537765850
    25     -0.0544840038
    26     -0.0468680272
    27     -0.0415834756
    28     -0.0068155245
    29     -0.0051321830
    30      0.0069361333
    31      0.0801389123
    32      0.0939924842
    33      0.1826275586
    34      0.2984575080
    35      0.3236869003
    36      0.3412031177
    37      0.3898251367
    38      0.4262745290
    39      0.5516089413
    40      0.6336144219
    41      0.6346779842
    42      0.7116277245
    43      0.7235095476
    44      0.8163637717
    45      0.9568477150
    46      0.9726949547
    47      1.0676381618
    48      1.0783123292
    49      1.1557205481
    50      1.1818645472
    51      1.2700763682
    52      1.2856977022
    53      1.2987917950
    54      1.3434642750
    55      1.3827724636
    56      1.3840185302
    57      1.4296999983
    58      1.4693577743
    59      1.6910328801
    60      1.7367217794
    61      1.9112395002
    62      2.0258884003
    63      2.0975556884
    64      2.1824692276
    65      2.3822822457
    66      2.3840124328
    67      2.4323980636
    68      2.6161911870
    69      2.6857359716
    70      2.7021121739
    71      3.9719871995
    72      4.5738512368
    69     0.42569     0.29798     0.00000     0.0082644628
     1     -2.4215505175
     2     -1.5531596067
     3     -1.5519402325
     4     -1.5496972716
     5     -1.5470294280
     6     -0.9718043305
     7     -0.9500863211
     8     -0.9471120427
     9     -0.8837617120
    10     -0.8739258202
    11     -0.8711244706
    12     -0.5097840467
    13     -0.5070315907
    14     -0.4919616367
    15     -0.4502973382
    16     -0.4467361451
    17     -0.4061101383
    18     -0.4042137463
    19     -0.4010278838
    20     -0.3542257129
    21     -0.2187667668
    22     -0.2068468602
    23     -0.1962120493
    24     -0.1532853576
    25     -0.0521366070
    26     -0.0456731538
    27     -0.0428958999
    28     -0.0033247316
    29     -0.0026602032
    30      0.0071022392
    31      0.0803305295
    32      0.0954288977
    33      0.1758083940
    34      0.2966630957
    35      0.3247850176
    36      0.3435892055
    37      0.3904498547
    38      0.4219148836
    39      0.5547056953
    40      0.6274622611
    41      0.6408584909
    42      0.7166346231
    43      0.7228232969
    44      0.8141106022
    45      0.9541359283
    46      0.9829324423
    47      1.0715670800
    48      1.0816258321
    49      1.1523172001
    50      1.1825584623
    51      1.2643535570
    52      1.2862285398
    53      1.2937732109
    54      1.3437499324
    55      1.3750742165
    56      1.3800387782
    57      1.4309130284
    58      1.4574571064
    59      1.6961481460
    60      1.7352305933
    61      1.9128072648
    62      2.0175433816
    63      2.1022981872
    64      2.1758910821
    65      2.3800744638
    66      2.3932657020
    67      2.4307888045
    68      2.6150074521
    69      2.6773995224
    70      2.6942051232
    71      3.9803369988
    72      4.5970183059
    70     0.42569     0.30863     0.00000     0.0082644628
     1     -2.4215492924
     2     -1.5530656882
     3     -1.5520212585
     4     -1.5496923895
     5     -1.5471004260
     6     -0.9706198216
     7     -0.9505531953
     8     -0.9475422224
     9     -0.8836970457
    10     -0.8735558399
    11     -0.8712198487
    12     -0.5101326651
    13     -0.5084587311
    14     -0.4938061559
    15     -0.4503030726
    16     -0.4472821265
    17     -0.4053872223
    18     -0.4051471994
    19     -0.4011443028
    20     -0.3530935558
    21     -0.2169486478
    22     -0.2068402740
    23     -0.1953775804
    24     -0.1528512470
    25     -0.0500066483
    26     -0.0445461492
    27     -0.0440315680
    28     -0.0016116429
    29      0.0015001267
    30      0.0072621622
    31      0.0806667048
    32      0.0967723500
    33      0.1690290637
    34      0.2950513286
    35      0.3257423493
    36      0.3460391887
    37      0.3912199253
    38      0.4179915176
    39      0.5575660591
    40      0.6203298772
    41      0.6478881878
    42      0.7213443959
    43      0.7222685672
    44      0.8115622304
    45      0.9512466518
    46      0.9935178769
    47      1.0762514060
    48      1.0854940995
    49      1.1492665324
    50      1.1831008629
    51      1.2584118409
    52      1.2869114103
    53      1.2877656665
    54      1.3440594442
    55      1.3682908567
    56      1.3762708473
    57      1.4319441078
    58      1.4452624745
    59      1.7012263041
    60      1.7343365045
    61      1.9143328355
    62      2.0090815159
    63      2.1070925026
    64      2.1700683885
    65      2.3778675146
    66      2.4020202511
    67      2.4307142902
    68      2.6141707963
    69      2.6531727387
    70      2.7021838805
    71      3.9889855565
    72      4.6197002743
    71     0.42569     0.31927     0.00000     0.0082644628
     1     -2.4215481601
     2     -1.5529757589
     3     -1.5520969336
     4     -1.5496877765
     5     -1.5471689083
     6     -0.9694420583
     7     -0.9509858187
     8     -0.9480206602
     9     -0.8836365559
    10     -0.8732132855
    11     -0.8712980828
    12     -0.5105294832
    13     -0.5097684372
    14     -0.4954673020
    15     -0.4503089112
    16     -0.4477907371
    17     -0.4060061739
    18     -0.4047111488
    19     -0.4012244967
    20     -0.3520740299
    21     -0.2152581027
    22     -0.2068338587
    23     -0.1945687914
    24     -0.1524696395
    25     -0.0483103629
    26     -0.0447851911
    27     -0.0434938464
    28     -0.0000046437
    29      0.0056276794
    30      0.0074144287
    31      0.0811725268
    32      0.0980177620
    33      0.1623085254
    34      0.2936162690
    35      0.3265640819
    36      0.3485259596
    37      0.3921037003
    38      0.4144925621
    39      0.5601859078
    40      0.6133679162
    41      0.6545958184
    42      0.7219730286
    43      0.7257170033
    44      0.8086897651
    45      0.9482979095
    46      1.0044022185
    47      1.0815970287
    48      1.0898392045
    49      1.1465729066
    50      1.1834567793
    51      1.2522932919
    52      1.2807388049
    53      1.2877478901
    54      1.3443802732
    55      1.3624962712
    56      1.3726976219
    57      1.4327901660
    58      1.4329975246
    59      1.7062177905
    60      1.7339139046
    61      1.9158220093
    62      2.0006262129
    63      2.1118680376
    64      2.1649113133
    65      2.3760829207
    66      2.4102201330
    67      2.4316652786
    68      2.6136334875
    69      2.6296667692
    70      2.7096217543
    71      3.9976458862
    72      4.6417294696
    72     0.42569     0.32991     0.00000     0.0082644628
     1     -2.4215471248
     2     -1.5528906642
     3     -1.5521668115
     4     -1.5496834688
     5     -1.5472341635
     6     -0.9682770985
     7     -0.9513824434
     8     -0.9485445663
     9     -0.8835806192
    10     -0.8728994582
    11     -0.8713607003
    12     -0.5109741954
    13     -0.5109589211
    14     -0.4969301549
    15     -0.4503147322
    16     -0.4482592569
    17     -0.4067887004
    18     -0.4040860849
    19     -0.4012758440
    20     -0.3511641040
    21     -0.2137031669
    22     -0.2068277128
    23     -0.1937967589
    24     -0.1521363745
    25     -0.0477285501
    26     -0.0444858128
    27     -0.0425225471
    28      0.0014851839
    29      0.0075575747
    30      0.0096764876
    31      0.0818783497
    32      0.0991603400
    33      0.1556666825
    34      0.2923511305
    35      0.3272586366
    36      0.3510155880
    37      0.3930653885
    38      0.4114026870
    39      0.5625619487
    40      0.6066654352
    41      0.6608459419
    42      0.7220880876
    43      0.7297197143
    44      0.8054744403
    45      0.9453917390
    46      1.0155208685
    47      1.0875014123
    48      1.0945776896
    49      1.1442324437
    50      1.1835897519
    51      1.2460481700
    52      1.2727531445
    53      1.2887319516
    54      1.3447034792
    55      1.3576848407
    56      1.3693048390
    57      1.4208779386
    58      1.4334596218
    59      1.7110672554
    60      1.7338475929
    61      1.9172725310
    62      1.9923159571
    63      2.1165480509
    64      2.1603469942
    65      2.3750062533
    66      2.4178125427
    67      2.4332526448
    68      2.6070818847
    69      2.6133449536
    70      2.7164728473
    71      4.0060760084
    72      4.6629079065
    73     0.42569     0.34055     0.00000     0.0082644628
     1     -2.4215461898
     2     -1.5528112746
     3     -1.5522304807
     4     -1.5496795020
     5     -1.5472954456
     6     -0.9671321242
     7     -0.9517414962
     8     -0.9491095631
     9     -0.8835295842
    10     -0.8726155310
    11     -0.8714094597
    12     -0.5120285524
    13     -0.5114605608
    14     -0.4981872242
    15     -0.4503204074
    16     -0.4486852067
    17     -0.4074930652
    18     -0.4035158950
    19     -0.4013049086
    20     -0.3503606455
    21     -0.2122912470
    22     -0.2068219306
    23     -0.1930722968
    24     -0.1518477433
    25     -0.0481986049
    26     -0.0432047989
    27     -0.0416379932
    28      0.0028475084
    29      0.0076901699
    30      0.0135914490
    31      0.0828204524
    32      0.1001956056
    33      0.1491248392
    34      0.2912484813
    35      0.3278366860
    36      0.3534670757
    37      0.3940665138
    38      0.4087044117
    39      0.5646916442
    40      0.6003133065
    41      0.6664789025
    42      0.7227831051
    43      0.7333272316
    44      0.8019096150
    45      0.9426135169
    46      1.0267886457
    47      1.0938501697
    48      1.0996179713
    49      1.1422335868
    50      1.1834623009
    51      1.2397379833
    52      1.2639557798
    53      1.2898482617
    54      1.3450241757
    55      1.3537814073
    56      1.3660868350
    57      1.4091136293
    58      1.4339683892
    59      1.7157131294
    60      1.7340355258
    61      1.9186740656
    62      1.9842992197
    63      2.1210509922
    64      2.1563197078
    65      2.3747886613
    66      2.4247482776
    67      2.4352083576
    68      2.5855920968
    69      2.6132537393
    70      2.7226964561
    71      4.0140734617
    72      4.6830041021
    74     0.42569     0.35119     0.00000     0.0082644628
     1     -2.4215453583
     2     -1.5527384730
     3     -1.5522875671
     4     -1.5496759099
     5     -1.5473519862
     6     -0.9660160212
     7     -0.9520615757
     8     -0.9497091325
     9     -0.8834837702
    10     -0.8723625506
    11     -0.8714462681
    12     -0.5129758614
    13     -0.5119749623
    14     -0.4992398745
    15     -0.4503258064
    16     -0.4490663542
    17     -0.4081177904
    18     -0.4030041141
    19     -0.4013174632
    20     -0.3496605307
    21     -0.2110290813
    22     -0.2068166007
    23     -0.1924057362
    24     -0.1516004803
    25     -0.0488996652
    26     -0.0417707201
    27     -0.0408453459
    28      0.0040728474
    29      0.0078108435
    30      0.0173079918
    31      0.0840410486
    32      0.1011194279
    33      0.1427062645
    34      0.2903004898
    35      0.3283101343
    36      0.3558325334
    37      0.3950674918
    38      0.4063792569
    39      0.5665731198
    40      0.5944038347
    41      0.6713310465
    42      0.7242222434
    43      0.7365214990
    44      0.7980030673
    45      0.9400329312
    46      1.0380919832
    47      1.1005113187
    48      1.1048559691
    49      1.1405582042
    50      1.1830380179
    51      1.2334400985
    52      1.2545599529
    53      1.2910703038
    54      1.3453422890
    55      1.3506703129
    56      1.3630505756
    57      1.3979121583
    58      1.4343372598
    59      1.7200874495
    60      1.7343895458
    61      1.9200088442
    62      1.9767296572
    63      2.1252923296
    64      2.1527901017
    65      2.3754753049
    66      2.4309820785
    67      2.4373574190
    68      2.5653549730
    69      2.6133093527
    70      2.7282574732
    71      4.0214701468
    72      4.7017544238
    75     0.42569     0.36184     0.00000     0.0082644628
     1     -2.4215446327
     2     -1.5526731372
     3     -1.5523377358
     4     -1.5496727244
     5     -1.5474030109
     6     -0.9649403304
     7     -0.9523414506
     8     -0.9503336968
     9     -0.8834434644
    10     -0.8721414388
    11     -0.8714730927
    12     -0.5137995416
    13     -0.5124965951
    14     -0.5000981227
    15     -0.4503308007
    16     -0.4494007196
    17     -0.4086616156
    18     -0.4025539226
    19     -0.4013185172
    20     -0.3490607476
    21     -0.2099227038
    22     -0.2068118047
    23     -0.1918067166
    24     -0.1513917495
    25     -0.0495818667
    26     -0.0404401308
    27     -0.0401491693
    28      0.0051526542
    29      0.0079183103
    30      0.0207529365
    31      0.0855870704
    32      0.1019280576
    33      0.1364368478
    34      0.2894992063
    35      0.3286911800
    36      0.3580579658
    37      0.3960292036
    38      0.4044087406
    39      0.5682050613
    40      0.5890299056
    41      0.6752774649
    42      0.7265172920
    43      0.7392911331
    44      0.7937804136
    45      0.9377056764
    46      1.0492764934
    47      1.1073274912
    48      1.1101682499
    49      1.1391831649
    50      1.1822867390
    51      1.2272546764
    52      1.2448277027
    53      1.2923584704
    54      1.3456640462
    55      1.3482261294
    56      1.3602186925
    57      1.3874812027
    58      1.4345898427
    59      1.7241162017
    60      1.7348349949
    61      1.9212529358
    62      1.9697617197
    63      2.1291868650
    64      2.1497335986
    65      2.3770263911
    66      2.4364729049
    67      2.4395936968
    68      2.5465236726
    69      2.6134639345
    70      2.7331265472
    71      4.0281277270
    72      4.7188693672
    76     0.42569     0.37248     0.00000     0.0082644628
     1     -2.4215440152
     2     -1.5526161179
     3     -1.5523806929
     4     -1.5496699748
     5     -1.5474477605
     6     -0.9639208241
     7     -0.9525800576
     8     -0.9509690800
     9     -0.8834089198
    10     -0.8719529937
    11     -0.8714918701
    12     -0.5144984529
    13     -0.5129995879
    14     -0.5007785041
    15     -0.4503352672
    16     -0.4496865793
    17     -0.4091234818
    18     -0.4021681240
    19     -0.4013123461
    20     -0.3485584900
    21     -0.2089774104
    22     -0.2068076160
    23     -0.1912839958
    24     -0.1512191299
    25     -0.0501858410
    26     -0.0395534209
    27     -0.0392781077
    28      0.0060793917
    29      0.0080113956
    30      0.0238471657
    31      0.0875071340
    32      0.1026181603
    33      0.1303458003
    34      0.2888368680
    35      0.3289915331
    36      0.3600848608
    37      0.3969144795
    38      0.4027752273
    39      0.5695866090
    40      0.5842834255
    41      0.6782823844
    42      0.7296695869
    43      0.7416304822
    44      0.7892914802
    45      0.9356753519
    46      1.0601270438
    47      1.1141053063
    48      1.1154018061
    49      1.1380822698
    50      1.1811952848
    51      1.2213148683
    52      1.2350701107
    53      1.2936585184
    54      1.3460049861
    55      1.3463343850
    56      1.3576315299
    57      1.3780274149
    58      1.4347507508
    59      1.7277205261
    60      1.7353098189
    61      1.9223780692
    62      1.9635464780
    63      2.1326514842
    64      2.1471381029
    65      2.3793221248
    66      2.4411841988
    67      2.4418662252
    68      2.5292630841
    69      2.6136736927
    70      2.7372799812
    71      4.0339336686
    72      4.7340446479
    77     0.42569     0.38312     0.00000     0.0082644628
     1     -2.4215435076
     2     -1.5525682118
     3     -1.5524161871
     4     -1.5496676871
     5     -1.5474855174
     6     -0.9629800760
     7     -0.9527764996
     8     -0.9515939764
     9     -0.8833803538
    10     -0.8717978906
    11     -0.8715044173
    12     -0.5150716246
    13     -0.5134563626
    14     -0.5013007036
    15     -0.4503390930
    16     -0.4499224694
    17     -0.4095025172
    18     -0.4018491256
    19     -0.4013025185
    20     -0.3481512402
    21     -0.2081977300
    22     -0.2068040984
    23     -0.1908452794
    24     -0.1510806008
    25     -0.0506916064
    26     -0.0390614458
    27     -0.0383093936
    28      0.0068465932
    29      0.0080890598
    30      0.0265103999
    31      0.0898464561
    32      0.1031868496
    33      0.1244663195
    34      0.2883062149
    35      0.3292218119
    36      0.3618527398
    37      0.3976894410
    38      0.4014626422
    39      0.5707172514
    40      0.5802528549
    41      0.6804192315
    42      0.7335347619
    43      0.7435383757
    44      0.7846239663
    45      0.9339753093
    46      1.0703367826
    47      1.1203600212
    48      1.1205997992
    49      1.1372283917
    50      1.1797876214
    51      1.2158007662
    52      1.2256700906
    53      1.2949011986
    54      1.3449008506
    55      1.3463959723
    56      1.3553475887
    57      1.3697482140
    58      1.4348439428
    59      1.7308191726
    60      1.7357635285
    61      1.9233538956
    62      1.9582272509
    63      2.1356082267
    64      2.1450011796
    65      2.3821516467
    66      2.4441718189
    67      2.4450841699
    68      2.5137741423
    69      2.6139000673
    70      2.7406993799
    71      4.0387979324
    72      4.7469764120
    78     0.42569     0.39376     0.00000     0.0082644628
     1     -2.4215431114
     2     -1.5525301315
     3     -1.5524440109
     4     -1.5496658836
     5     -1.5475156345
     6     -0.9621513335
     7     -0.9529300447
     8     -0.9521761161
     9     -0.8833579466
    10     -0.8716766818
    11     -0.8715123488
    12     -0.5155182581
    13     -0.5138410222
    14     -0.5016841630
    15     -0.4503421791
    16     -0.4501071889
    17     -0.4097980253
    18     -0.4015989207
    19     -0.4012919205
    20     -0.3478368402
    21     -0.2075874002
    22     -0.2068013055
    23     -0.1904970749
    24     -0.1509745281
    25     -0.0510903781
    26     -0.0386759758
    27     -0.0375466198
    28      0.0074489112
    29      0.0081504194
    30      0.0286675712
    31      0.0926403384
    32      0.1036317169
    33      0.1188360785
    34      0.2879007984
    35      0.3293911131
    36      0.3633027005
    37      0.3983246767
    38      0.4004570581
    39      0.5715967256
    40      0.5770197760
    41      0.6818387072
    42      0.7378209307
    43      0.7450166777
    44      0.7799355871
    45      0.9326303312
    46      1.0794641016
    47      1.1247869644
    48      1.1264908289
    49      1.1365956546
    50      1.1781590546
    51      1.2109549951
    52      1.2171248454
    53      1.2960044522
    54      1.3438532187
    55      1.3468947123
    56      1.3534411014
    57      1.3628122161
    58      1.4348912262
    59      1.7333325068
    60      1.7361562125
    61      1.9241505379
    62      1.9539345716
    63      2.1379875022
    64      2.1433269145
    65      2.3851909393
    66      2.4465390784
    67      2.4481461177
    68      2.5003364049
    69      2.6141106130
    70      2.7433710936
    71      4.0426502848
    72      4.7573792769
    79     0.42569     0.40441     0.00000     0.0082644628
     1     -2.4215428276
     2     -1.5525024740
     3     -1.5524640019
     4     -1.5496645821
     5     -1.5475375666
     6     -0.9614829246
     7     -0.9530401247
     8     -0.9526678918
     9     -0.8833418395
    10     -0.8715897970
    11     -0.8715170031
    12     -0.5158377295
    13     -0.5141318760
    14     -0.5019455523
    15     -0.4503444444
    16     -0.4502398015
    17     -0.4100094750
    18     -0.4014190748
    19     -0.4012827757
    20     -0.3476135507
    21     -0.2071493475
    22     -0.2067992797
    23     -0.1902445701
    24     -0.1508996531
    25     -0.0513776152
    26     -0.0383991303
    27     -0.0369972874
    28      0.0078821529
    29      0.0081947670
    30      0.0302553158
    31      0.0959077793
    32      0.1039508590
    33      0.1134974411
    34      0.2876152664
    35      0.3295067244
    36      0.3643817693
    37      0.3987962338
    38      0.3997471657
    39      0.5722249280
    40      0.5746546566
    41      0.6827100054
    42      0.7420658644
    43      0.7460687951
    44      0.7755341306
    45      0.9316580827
    46      1.0868919574
    47      1.1283601593
    48      1.1313525940
    49      1.1361614858
    50      1.1765238763
    51      1.2070898270
    52      1.2100894053
    53      1.2968799998
    54      1.3431392703
    55      1.3476056234
    56      1.3519950236
    57      1.3573246681
    58      1.4349109662
    59      1.7351880703
    60      1.7364576987
    61      1.9247412226
    62      1.9507802586
    63      2.1397312291
    64      2.1421227144
    65      2.3879877278
    66      2.4489570081
    67      2.4503487777
    68      2.4893978376
    69      2.6142796188
    70      2.7452855389
    71      4.0454381848
    72      4.7650054148
    80     0.42569     0.41505     0.00000     0.0082644628
     1     -2.4215426570
     2     -1.5524856912
     3     -1.5524760433
     4     -1.5496637959
     5     -1.5475508992
     6     -0.9610383656
     7     -0.9531063346
     8     -0.9530062799
     9     -0.8833321344
    10     -0.8715375433
    11     -0.8715193819
    12     -0.5160295917
    13     -0.5143128882
    14     -0.5020973209
    15     -0.4503458285
    16     -0.4503196373
    17     -0.4101364928
    18     -0.4013107144
    19     -0.4012766612
    20     -0.3474800962
    21     -0.2068856728
    22     -0.2067980518
    23     -0.1900915388
    24     -0.1508550832
    25     -0.0515508133
    26     -0.0382324200
    27     -0.0366659981
    28      0.0081433071
    29      0.0082215855
    30      0.0312267619
    31      0.0996457462
    32      0.1041428996
    33      0.1084986728
    34      0.2874456069
    35      0.3295739475
    36      0.3650475883
    37      0.3990864148
    38      0.3993246335
    39      0.5726018406
    40      0.5732122667
    41      0.6831735830
    42      0.7454991792
    43      0.7466982989
    44      0.7720611409
    45      0.9310702950
    46      1.0918492643
    47      1.1307169872
    48      1.1346451198
    49      1.1359083843
    50      1.1752460714
    51      1.2045606741
    52      1.2053588629
    53      1.2974455776
    54      1.3427241351
    55      1.3487046060
    56      1.3510883018
    57      1.3532826393
    58      1.4349170430
    59      1.7363271683
    60      1.7366468979
    61      1.9251047428
    62      1.9488508665
    63      2.1407956432
    64      2.1413963462
    65      2.3899986381
    66      2.4511323612
    67      2.4516766611
    68      2.4817826343
    69      2.6143885049
    70      2.7464364994
    71      4.0471251972
    72      4.7696625720
    81     0.42569     0.42569     0.00000     0.0082644628
     1     -2.4215426001
     2     -1.5524800649
     3     -1.5524800649
     4     -1.5496635329
     5     -1.5475553728
     6     -0.9608807922
     7     -0.9531284316
     8     -0.9531284316
     9     -0.8833288925
    10     -0.8715201049
    11     -0.8715201049
    12     -0.5160935757
    13     -0.5143743123
    14     -0.5021470628
    15     -0.4503462940
    16     -0.4503462940
    17     -0.4101788565
    18     -0.4012745186
    19     -0.4012745186
    20     -0.3474356986
    21     -0.2067976404
    22     -0.2067976404
    23     -0.1900402723
    24     -0.1508402856
    25     -0.0516086800
    26     -0.0381767495
    27     -0.0365552958
    28      0.0082305603
    29      0.0082305603
    30      0.0315536918
    31      0.1035141550
    32      0.1042070060
    33      0.1042070060
    34      0.2873893343
    35      0.3295959964
    36      0.3652727010
    37      0.3991843617
    38      0.3991843617
    39      0.5727274755
    40      0.5727274755
    41      0.6833181338
    42      0.7469078142
    43      0.7469078142
    44      0.7706484059
    45      0.9308736444
    46      1.0936067439
    47      1.1315451038
    48      1.1358252795
    49      1.1358252795
    50      1.1747512769
    51      1.2036755906
    52      1.2036755906
    53      1.2976414421
    54      1.3425879104
    55      1.3502138520
    56      1.3507789067
    57      1.3507789067
    58      1.4349180920
    59      1.7367113397
    60      1.7367113397
    61      1.9252274811
    62      1.9482014313
    63      2.1411535272
    64      2.1411535272
    65      2.3907364946
    66      2.4521203436
    67      2.4521203436
    68      2.4789147378
    69      2.6144260507
    70      2.7468205206
    71      4.0476898921
    72      4.7712288763
    82     0.41505     0.41505     0.00000     0.0082644628
     1     -2.4215427139
     2     -1.5524870420
     3     -1.5524762801
     4     -1.5496640590
     5     -1.5475464433
     6     -0.9611894167
     7     -0.9531226577
     8     -0.9528522566
     9     -0.8833353753
    10     -0.8715442816
    11     -0.8715293560
    12     -0.5159667744
    13     -0.5142498423
    14     -0.5020480515
    15     -0.4503592341
    16     -0.4502790423
    17     -0.4100941999
    18     -0.4013615730
    19     -0.4012639249
    20     -0.3475243600
    21     -0.2068986948
    22     -0.2068734990
    23     -0.1901429087
    24     -0.1508698679
    25     -0.0514939564
    26     -0.0382874572
    27     -0.0367766565
    28      0.0081097972
    29      0.0081589830
    30      0.0309038581
    31      0.0976551504
    32      0.1048594679
    33      0.1101277161
    34      0.2875018081
    35      0.3295527521
    36      0.3648238077
    37      0.3990839037
    38      0.3993689080
    39      0.5725851335
    40      0.5735869161
    41      0.6830365552
    42      0.7434674682
    43      0.7473320005
    44      0.7732467182
    45      0.9312651424
    46      1.0900239940
    47      1.1301748843
    48      1.1341494237
    49      1.1353037386
    50      1.1757672498
    51      1.2034899415
    52      1.2087802140
    53      1.2972066587
    54      1.3428590411
    55      1.3486772912
    56      1.3508229113
    57      1.3549001150
    58      1.4349170991
    59      1.7358716414
    60      1.7366580238
    61      1.9249798986
    62      1.9494929905
    63      2.1403874638
    64      2.1416905946
    65      2.3892867046
    66      2.4474990841
    67      2.4544872443
    68      2.4840180341
    69      2.6143507905
    70      2.7460517076
    71      4.0465540224
    72      4.7681192416
    83     0.40441     0.40441     0.00000     0.0082644628
     1     -2.4215430550
     2     -1.5525076059
     3     -1.5524649486
     4     -1.5496656342
     5     -1.5475200409
     6     -0.9620046734
     7     -0.9531053498
     8     -0.9521346180
     9     -0.8833547719
    10     -0.8716166491
    11     -0.8715566989
    12     -0.5156004643
    13     -0.5138635816
    14     -0.5017515987
    15     -0.4503974282
    16     -0.4500774092
    17     -0.4098412205
    18     -0.4016193586
    19     -0.4012318669
    20     -0.3477892655
    21     -0.2072014011
    22     -0.2071009797
    23     -0.1904505128
    24     -0.1509588117
    25     -0.0511630974
    26     -0.0386109597
    27     -0.0374386100
    28      0.0077497789
    29      0.0079447770
    30      0.0290168895
    31      0.0915344783
    32      0.1067549371
    33      0.1164328693
    34      0.2878400602
    35      0.3294311103
    36      0.3635114758
    37      0.3987899884
    38      0.3999191214
    39      0.5721605073
    40      0.5761250278
    41      0.6822208797
    42      0.7357302942
    43      0.7485780074
    44      0.7784549316
    45      0.9324134085
    46      1.0795691604
    47      1.1282996010
    48      1.1294658673
    49      1.1338864470
    50      1.1786646967
    51      1.2029364515
    52      1.2215624197
    53      1.2955503407
    54      1.3436694285
    55      1.3497068640
    56      1.3509519598
    57      1.3616597123
    58      1.4349214114
    59      1.7334416325
    60      1.7364912173
    61      1.9242217950
    62      1.9532456727
    63      2.1381261914
    64      2.1432923068
    65      2.3855531562
    66      2.4382598669
    67      2.4610082175
    68      2.4947073072
    69      2.6141313593
    70      2.7437384453
    71      4.0430831207
    72      4.7591452183
    84     0.39376     0.39376     0.00000     0.0082644628
     1     -2.4215436225
     2     -1.5525406951
     3     -1.5524461385
     4     -1.5496682488
     5     -1.5474772840
     6     -0.9631282380
     7     -0.9530765497
     8     -0.9511746079
     9     -0.8833869268
    10     -0.8717367209
    11     -0.8716009485
    12     -0.5150341279
    13     -0.5131797626
    14     -0.5012594507
    15     -0.4504590527
    16     -0.4497417611
    17     -0.4094228325
    18     -0.4020378794
    19     -0.4011775168
    20     -0.3482271975
    21     -0.2077043810
    22     -0.2074797941
    23     -0.1909621281
    24     -0.1511076961
    25     -0.0506594349
    26     -0.0391179482
    27     -0.0385348676
    28      0.0071572274
    29      0.0075895156
    30      0.0260529194
    31      0.0854894099
    32      0.1097351285
    33      0.1227831694
    34      0.2884065183
    35      0.3292553723
    36      0.3614319377
    37      0.3983245513
    38      0.4008249683
    39      0.5714606976
    40      0.5802285831
    41      0.6809500560
    42      0.7262927399
    43      0.7505741089
    44      0.7836733812
    45      0.9342379006
    46      1.0639846767
    47      1.1226332734
    48      1.1280177783
    49      1.1318945101
    50      1.1831131661
    51      1.2020253043
    52      1.2381729304
    53      1.2921962928
    54      1.3450103146
    55      1.3511575988
    56      1.3531195660
    57      1.3709337811
    58      1.4349523763
    59      1.7296624586
    60      1.7361907210
    61      1.9229100604
    62      1.9591205064
    63      2.1344768663
    64      2.1459303920
    65      2.3807423248
    66      2.4280347831
    67      2.4705800006
    68      2.5073616856
    69      2.6137936367
    70      2.7398621557
    71      4.0370909005
    72      4.7453326982
    85     0.38312     0.38312     0.00000     0.0082644628
     1     -2.4215444147
     2     -1.5525846637
     3     -1.5524199629
     4     -1.5496718866
     5     -1.5474199129
     6     -0.9644152176
     7     -0.9530363276
     8     -0.9501182648
     9     -0.8834315837
    10     -0.8719036924
    11     -0.8716602785
    12     -0.5143160536
    13     -0.5121562439
    14     -0.5005745265
    15     -0.4505412427
    16     -0.4492727117
    17     -0.4088437116
    18     -0.4026009167
    19     -0.4010995016
    20     -0.3488328534
    21     -0.2084053109
    22     -0.2080094531
    23     -0.1916760378
    24     -0.1513174441
    25     -0.0500684470
    26     -0.0400552624
    27     -0.0397461444
    28      0.0063430490
    29      0.0070958075
    30      0.0222113897
    31      0.0795311305
    32      0.1136036741
    33      0.1291636650
    34      0.2892049946
    35      0.3290660722
    36      0.3587257993
    37      0.3977227163
    38      0.4020705199
    39      0.5704972170
    40      0.5857305866
    41      0.6793333629
    42      0.7161089100
    43      0.7532220805
    44      0.7879583078
    45      0.9366008486
    46      1.0455535512
    47      1.1146769969
    48      1.1292946852
    49      1.1296337520
    50      1.1887914892
    51      1.2007728963
    52      1.2563505601
    53      1.2871850097
    54      1.3468679067
    55      1.3514272311
    56      1.3578625536
    57      1.3828138655
    58      1.4350438271
    59      1.7248659106
    60      1.7357241049
    61      1.9209824627
    62      1.9666261740
    63      2.1296064132
    64      2.1495584071
    65      2.3758802084
    66      2.4177367401
    67      2.4823281443
    68      2.5210848949
    69      2.6134060594
    70      2.7343979063
    71      4.0282832588
    72      4.7282656088
    86     0.37248     0.37248     0.00000     0.0082644628
     1     -2.4215454290
     2     -1.5526374361
     3     -1.5523865794
     4     -1.5496765249
     5     -1.5473501356
     6     -0.9657817707
     7     -0.9529847838
     8     -0.9490507604
     9     -0.8834883883
    10     -0.8721164500
    11     -0.8717324362
    12     -0.5134755972
    13     -0.5107721856
    14     -0.4997009307
    15     -0.4506403237
    16     -0.4486711253
    17     -0.4081100543
    18     -0.4032866531
    19     -0.4009959131
    20     -0.3495989331
    21     -0.2093008872
    22     -0.2086892524
    23     -0.1925896112
    24     -0.1515892644
    25     -0.0495426266
    26     -0.0419861825
    27     -0.0403751609
    28      0.0053219124
    29      0.0064672753
    30      0.0176824801
    31      0.0736695455
    32      0.1181746750
    33      0.1355583759
    34      0.2902402590
    35      0.3289198184
    36      0.3555565840
    37      0.3970307603
    38      0.4036350904
    39      0.5692855360
    40      0.5924345214
    41      0.6774897847
    42      0.7055637642
    43      0.7564164381
    44      0.7909656445
    45      0.9393097880
    46      1.0257866661
    47      1.1065240462
    48      1.1273183722
    49      1.1317114503
    50      1.1954643907
    51      1.1992011397
    52      1.2749870705
    53      1.2808929065
    54      1.3492244245
    55      1.3517464041
    56      1.3630842288
    57      1.3969485507
    58      1.4352394974
    59      1.7194117134
    60      1.7350484864
    61      1.9183711123
    62      1.9751888098
    63      2.1237252132
    64      2.1541127955
    65      2.3716945497
    66      2.4076205390
    67      2.4956792329
    68      2.5356410621
    69      2.6131287222
    70      2.7273225288
    71      4.0162964884
    72      4.7099078425
    87     0.36184     0.36184     0.00000     0.0082644628
     1     -2.4215466620
     2     -1.5526966735
     3     -1.5523461890
     4     -1.5496821347
     5     -1.5472704610
     6     -0.9671793349
     7     -0.9529220494
     8     -0.9480219171
     9     -0.8835568935
    10     -0.8723735832
    11     -0.8718150203
    12     -0.5125168303
    13     -0.5090343163
    14     -0.4986439730
    15     -0.4507520841
    16     -0.4479381234
    17     -0.4072292897
    18     -0.4040684718
    19     -0.4008643213
    20     -0.3505162546
    21     -0.2103867846
    22     -0.2095182547
    23     -0.1936991467
    24     -0.1519245771
    25     -0.0493263779
    26     -0.0443111107
    27     -0.0408011952
    28      0.0041117006
    29      0.0057085264
    30      0.0126245288
    31      0.0679151795
    32      0.1232952364
    33      0.1419476574
    34      0.2915172741
    35      0.3288886741
    36      0.3520918515
    37      0.3963035064
    38      0.4054947262
    39      0.5678444979
    40      0.6001369498
    41      0.6755332697
    42      0.6948466503
    43      0.7600574052
    44      0.7925913117
    45      0.9421318734
    46      1.0055126229
    47      1.0988857921
    48      1.1250790925
    49      1.1349941782
    50      1.1973367521
    51      1.2029745664
    52      1.2737051101
    53      1.2935096919
    54      1.3520593076
    55      1.3521020566
    56      1.3684089428
    57      1.4126666285
    58      1.4355895099
    59      1.7136469448
    60      1.7341128774
    61      1.9150190961
    62      1.9842061257
    63      2.1170668772
    64      2.1595144308
    65      2.3687345028
    66      2.3977722049
    67      2.5101384375
    68      2.5509609919
    69      2.6133137247
    70      2.7186242300
    71      4.0007706869
    72      4.6923751618
    88     0.35119     0.35119     0.00000     0.0082644628
     1     -2.4215481095
     2     -1.5527599264
     3     -1.5522990349
     4     -1.5496886805
     5     -1.5471835452
     6     -0.9685775547
     7     -0.9528482894
     8     -0.9470629833
     9     -0.8836365653
    10     -0.8726733997
    11     -0.8719058030
    12     -0.5114340659
    13     -0.5069613042
    14     -0.4974101927
    15     -0.4508720539
    16     -0.4470750921
    17     -0.4062097831
    18     -0.4049158771
    19     -0.4007017911
    20     -0.3515738944
    21     -0.2116576149
    22     -0.2104952654
    23     -0.1949997472
    24     -0.1523249291
    25     -0.0496954412
    26     -0.0470112171
    27     -0.0407970263
    28      0.0027328744
    29      0.0048251146
    30      0.0071609948
    31      0.0622796561
    32      0.1288484226
    33      0.1483069160
    34      0.2930398706
    35      0.3290587254
    36      0.3484905484
    37      0.3956013815
    38      0.4076239499
    39      0.5661956465
    40      0.6086447222
    41      0.6735650139
    42      0.6840551125
    43      0.7640566122
    44      0.7928739157
    45      0.9448213211
    46      0.9851998459
    47      1.0922295053
    48      1.1229906217
    49      1.1389792222
    50      1.1952106833
    51      1.2112152615
    52      1.2659212081
    53      1.3115952192
    54      1.3524866586
    55      1.3553504278
    56      1.3737320501
    57      1.4292487741
    58      1.4361461502
    59      1.7078916034
    60      1.7328609753
    61      1.9108975813
    62      1.9930850248
    63      2.1098670684
    64      2.1656706708
    65      2.3674631562
    66      2.3882205505
    67      2.5249782043
    68      2.5670249314
    69      2.6147085903
    70      2.7083121918
    71      3.9814593145
    72      4.6776825995
    89     0.34055     0.34055     0.00000     0.0082644628
     1     -2.4215497660
     2     -1.5528247584
     3     -1.5522454013
     4     -1.5496961207
     5     -1.5470920669
     6     -0.9699557864
     7     -0.9527637041
     8     -0.9461948097
     9     -0.8837267890
    10     -0.8730139432
    11     -0.8720030680
    12     -0.5102228434
    13     -0.5045726567
    14     -0.4960073910
    15     -0.4509957595
    16     -0.4460836921
    17     -0.4057954758
    18     -0.4050605559
    19     -0.4005049022
    20     -0.3527593442
    21     -0.2131068950
    22     -0.2116188040
    23     -0.1964852620
    24     -0.1527919053
    25     -0.0507584449
    26     -0.0500659519
    27     -0.0403096627
    28      0.0012077887
    29      0.0013860579
    30      0.0038234933
    31      0.0567759470
    32      0.1347475239
    33      0.1546056669
    34      0.2948084643
    35      0.3295274415
    36      0.3448973781
    37      0.3949874102
    38      0.4099976460
    39      0.5643625114
    40      0.6177860656
    41      0.6716707181
    42      0.6732330121
    43      0.7683377377
    44      0.7919547464
    45      0.9471537783
    46      0.9651355356
    47      1.0867854016
    48      1.1210938179
    49      1.1435553561
    50      1.1928577604
    51      1.2201078064
    52      1.2577723014
    53      1.3290501435
    54      1.3529030392
    55      1.3590752018
    56      1.3790479405
    57      1.4369592888
    58      1.4460203301
    59      1.7024426647
    60      1.7312342579
    61      1.9060197694
    62      2.0012725594
    63      2.1023452045
    64      2.1724779058
    65      2.3682914956
    66      2.3789688926
    67      2.5388268745
    68      2.5838239366
    69      2.6187980539
    70      2.6964245742
    71      3.9583523984
    72      4.6675096695
    90     0.32991     0.32991     0.00000     0.0082644628
     1     -2.4215516247
     2     -1.5528888346
     3     -1.5521856119
     4     -1.5497044080
     5     -1.5469986364
     6     -0.9712989975
     7     -0.9526685326
     8     -0.9454316377
     9     -0.8838268773
    10     -0.8733930122
    11     -0.8721059330
    12     -0.5088822369
    13     -0.5018862872
    14     -0.4944446693
    15     -0.4511189360
    16     -0.4449658713
    17     -0.4066719711
    18     -0.4037910451
    19     -0.4002697726
    20     -0.3540586779
    21     -0.2147270315
    22     -0.2128870713
    23     -0.1981483112
    24     -0.1533270407
    25     -0.0534535956
    26     -0.0524086741
    27     -0.0395074758
    28     -0.0046279609
    29     -0.0004400006
    30      0.0027109596
    31      0.0514184885
    32      0.1409284446
    33      0.1608071114
    34      0.2968160776
    35      0.3303994262
    36      0.3414436101
    37      0.3945243993
    38      0.4125929597
    39      0.5623698943
    40      0.6274165281
    41      0.6623915841
    42      0.6699204303
    43      0.7728346427
    44      0.7900475701
    45      0.9455089086
    46      0.9489558649
    47      1.0825718109
    48      1.1194098574
    49      1.1486346412
    50      1.1903165564
    51      1.2295866065
    52      1.2494493414
    53      1.3457574347
    54      1.3533695738
    55      1.3632115485
    56      1.3843807453
    57      1.4380719817
    58      1.4623295560
    59      1.6975855464
    60      1.7291752333
    61      1.9004478751
    62      2.0082891305
    63      2.0946930157
    64      2.1798245301
    65      2.3700052724
    66      2.3715695497
    67      2.5494967119
    68      2.6013415875
    69      2.6279240965
    70      2.6830335023
    71      3.9317689778
    72      4.6630380651
    91     0.31927     0.31927     0.00000     0.0082644628
     1     -2.4215536778
     2     -1.5529499793
     3     -1.5521200274
     4     -1.5497134893
     5     -1.5469057345
     6     -0.9725957194
     7     -0.9525630556
     8     -0.9447828715
     9     -0.8839360782
    10     -0.8738081809
    11     -0.8722146244
    12     -0.5074142249
    13     -0.4989190126
    14     -0.4927324736
    15     -0.4512376869
    16     -0.4437238804
    17     -0.4075091283
    18     -0.4024109084
    19     -0.3999920864
    20     -0.3554567233
    21     -0.2165093292
    22     -0.2142979111
    23     -0.1999803982
    24     -0.1539317366
    25     -0.0571517319
    26     -0.0544935069
    27     -0.0386092566
    28     -0.0108241187
    29     -0.0021864022
    30      0.0014955899
    31      0.0462231144
    32      0.1473429686
    33      0.1668686207
    34      0.2990412618
    35      0.3317802134
    36      0.3382539972
    37      0.3942725099
    38      0.4153910775
    39      0.5602431912
    40      0.6374211918
    41      0.6515258714
    42      0.6683693966
    43      0.7774887202
    44      0.7874078924
    45      0.9264506680
    46      0.9501188901
    47      1.0794390859
    48      1.1179486735
    49      1.1541395140
    50      1.1876294226
    51      1.2395890852
    52      1.2411193512
    53      1.3539253669
    54      1.3616504289
    55      1.3677386766
    56      1.3897605112
    57      1.4395168491
    58      1.4775109982
    59      1.6936006128
    60      1.7266306949
    61      1.8942903208
    62      2.0137649830
    63      2.0870728406
    64      2.1875942147
    65      2.3613056187
    66      2.3775514466
    67      2.5551729112
    68      2.6195418021
    69      2.6440471781
    70      2.6682460377
    71      3.9023771380
    72      4.6649042527
    92     0.30863     0.30863     0.00000     0.0082644628
     1     -2.4215559161
     2     -1.5530062071
     3     -1.5520490440
     4     -1.5497233069
     5     -1.5468156764
     6     -0.9738369726
     7     -0.9524475991
     8     -0.9442539424
     9     -0.8840535834
    10     -0.8742568206
    11     -0.8723306709
    12     -0.5058228037
    13     -0.4956873050
    14     -0.4908826445
    15     -0.4513485920
    16     -0.4423602911
    17     -0.4082706858
    18     -0.4009298789
    19     -0.3996671297
    20     -0.3569372283
    21     -0.2184440297
    22     -0.2158487684
    23     -0.2019721000
    24     -0.1546071827
    25     -0.0611376243
    26     -0.0569050927
    27     -0.0377914675
    28     -0.0171559627
    29     -0.0040073988
    30      0.0001861670
    31      0.0412066865
    32      0.1539535531
    33      0.1727435453
    34      0.3014353596
    35      0.3337679031
    36      0.3354609258
    37      0.3942873361
    38      0.4183787593
    39      0.5580077805
    40      0.6406295052
    41      0.6477143095
    42      0.6670591709
    43      0.7822463404
    44      0.7843014713
    45      0.9080530644
    46      0.9505935399
    47      1.0771314100
    48      1.1167138483
    49      1.1599972293
    50      1.1848425959
    51      1.2329299527
    52      1.2500480864
    53      1.3546352143
    54      1.3726376945
    55      1.3766983260
    56      1.3952138456
    57      1.4413137577
    58      1.4908822033
    59      1.6907498088
    60      1.7235548410
    61      1.8876885575
    62      2.0174719187
    63      2.0796262598
    64      2.1956693089
    65      2.3528342756
    66      2.3863509754
    67      2.5560580660
    68      2.6383586607
    69      2.6522007532
    70      2.6670474211
    71      3.8711336898
    72      4.6732680707
    93     0.29798     0.29798     0.00000     0.0082644628
     1     -2.4215583288
     2     -1.5530557348
     3     -1.5519730909
     4     -1.5497337984
     5     -1.5467305922
     6     -0.9750156719
     7     -0.9523225381
     8     -0.9438467813
     9     -0.8841785369
    10     -0.8747361215
    11     -0.8724569928
    12     -0.5041133527
    13     -0.4922077920
    14     -0.4889084681
    15     -0.4514487670
    16     -0.4408780188
    17     -0.4089211968
    18     -0.3993576616
    19     -0.3992898383
    20     -0.3584830170
    21     -0.2205203813
    22     -0.2175366426
    23     -0.2041133117
    24     -0.1553542851
    25     -0.0653884867
    26     -0.0595770233
    27     -0.0371887593
    28     -0.0235840922
    29     -0.0058795813
    30     -0.0012079003
    31      0.0363862476
    32      0.1607295159
    33      0.1783845953
    34      0.3039002950
    35      0.3332286435
    36      0.3364427200
    37      0.3946185629
    38      0.4215495042
    39      0.5556884951
    40      0.6297077766
    41      0.6582370908
    42      0.6660187360
    43      0.7809752843
    44      0.7870567326
    45      0.8903810124
    46      0.9503721039
    47      1.0753565874
    48      1.1157053640
    49      1.1661376061
    50      1.1820062938
    51      1.2250062430
    52      1.2608849399
    53      1.3555944575
    54      1.3778920195
    55      1.3908969498
    56      1.4007586974
    57      1.4434690803
    58      1.5017972950
    59      1.6892284445
    60      1.7199121276
    61      1.8807955414
    62      2.0193378131
    63      2.0724909868
    64      2.2039341792
    65      2.3445434996
    66      2.3979029445
    67      2.5535491417
    68      2.6350602476
    69      2.6576871454
    70      2.6954897966
    71      3.8391744244
    72      4.6879545330
    94     0.28734     0.28734     0.00000     0.0082644628
     1     -2.4215609040
     2     -1.5530969820
     3     -1.5518926275
     4     -1.5497448973
     5     -1.5466524191
     6     -0.9761262819
     7     -0.9521883003
     8     -0.9435601469
     9     -0.8843100437
    10     -0.8752431141
    11     -0.8725978695
    12     -0.5022922175
    13     -0.4884975418
    14     -0.4868247258
    15     -0.4515358852
    16     -0.4392803495
    17     -0.4094267931
    18     -0.3988548653
    19     -0.3977038675
    20     -0.3600761266
    21     -0.2227267390
    22     -0.2193580363
    23     -0.2063935209
    24     -0.1561736001
    25     -0.0698816492
    26     -0.0624668604
    27     -0.0369077258
    28     -0.0300738421
    29     -0.0077805956
    30     -0.0026766648
    31      0.0317775055
    32      0.1676442949
    33      0.1837486147
    34      0.3062561909
    35      0.3317877173
    36      0.3398550078
    37      0.3953092941
    38      0.4249042540
    39      0.5533091878
    40      0.6187880425
    41      0.6652656243
    42      0.6689540000
    43      0.7776347209
    44      0.7918703758
    45      0.8734788540
    46      0.9494692328
    47      1.0738490881
    48      1.1149210363
    49      1.1724923056
    50      1.1791747509
    51      1.2174440829
    52      1.2720019515
    53      1.3569341895
    54      1.3834875313
    55      1.4042620620
    56      1.4063999610
    57      1.4459764756
    58      1.5097578316
    59      1.6890816781
    60      1.7156797510
    61      1.8737498417
    62      2.0194361415
    63      2.0658219003
    64      2.2122782904
    65      2.3363725995
    66      2.4119359443
    67      2.5488538427
    68      2.6170006100
    69      2.6773748622
    70      2.7279576172
    71      3.8076989615
    72      4.7086102488
    95     0.27670     0.27670     0.00000     0.0082644628
     1     -2.4215636281
     2     -1.5531285632
     3     -1.5518081409
     4     -1.5497565333
     5     -1.5465828984
     6     -0.9771646062
     7     -0.9520453704
     8     -0.9433899268
     9     -0.8844471779
    10     -0.8757746900
    11     -0.8727587836
    12     -0.5003664271
    13     -0.4846477333
    14     -0.4845742244
    15     -0.4516081687
    16     -0.4375709708
    17     -0.4097558708
    18     -0.3983566832
    19     -0.3959779754
    20     -0.3616979165
    21     -0.2250506915
    22     -0.2213089005
    23     -0.2088020797
    24     -0.1570652714
    25     -0.0745946252
    26     -0.0655450701
    27     -0.0370333172
    28     -0.0365937738
    29     -0.0096894974
    30     -0.0042097343
    31      0.0273925485
    32      0.1746734788
    33      0.1888019697
    34      0.3082235015
    35      0.3314547623
    36      0.3440126193
    37      0.3963962735
    38      0.4284515699
    39      0.5508923946
    40      0.6079266562
    41      0.6648070925
    42      0.6798476992
    43      0.7744294535
    44      0.7966378633
    45      0.8573748703
    46      0.9479090179
    47      1.0724151458
    48      1.1143570970
    49      1.1764061993
    50      1.1789948414
    51      1.2103037257
    52      1.2832737765
    53      1.3588272004
    54      1.3894123872
    55      1.4121243631
    56      1.4168240497
    57      1.4488188399
    58      1.5145394744
    59      1.6901219052
    60      1.7108496817
    61      1.8666501124
    62      2.0179538914
    63      2.0598112574
    64      2.2205988666
    65      2.3282470436
    66      2.4279384598
    67      2.5428093845
    68      2.5981993279
    69      2.6972154325
    70      2.7632215132
    71      3.7778791268
    72      4.7348301683
    96     0.26606     0.26606     0.00000     0.0082644628
     1     -2.4215664861
     2     -1.5531492766
     3     -1.5517201427
     4     -1.5497686327
     5     -1.5465235766
     6     -0.9781276546
     7     -0.9518942943
     8     -0.9433294643
     9     -0.8845889911
    10     -0.8763276224
    11     -0.8729461530
    12     -0.4983434901
    13     -0.4823953589
    14     -0.4804562094
    15     -0.4516643594
    16     -0.4357540104
    17     -0.4098796968
    18     -0.3977897395
    19     -0.3941893143
    20     -0.3633291361
    21     -0.2274792045
    22     -0.2233845744
    23     -0.2113284508
    24     -0.1580289695
    25     -0.0795050930
    26     -0.0687892628
    27     -0.0431147298
    28     -0.0376293081
    29     -0.0115870210
    30     -0.0057963695
    31      0.0232369642
    32      0.1817933845
    33      0.1935252627
    34      0.3095044052
    35      0.3325525864
    36      0.3488688227
    37      0.3979114874
    38      0.4322072560
    39      0.5484590903
    40      0.5972123293
    41      0.6646413903
    42      0.6909126849
    43      0.7714483029
    44      0.8013091824
    45      0.8420845511
    46      0.9457197601
    47      1.0709564090
    48      1.1140081945
    49      1.1737628621
    50      1.1855809468
    51      1.2036072760
    52      1.2945389584
    53      1.3614935324
    54      1.3956564016
    55      1.4178930841
    56      1.4286234776
    57      1.4519709466
    58      1.5162592212
    59      1.6919129603
    60      1.7054302158
    61      1.8595345331
    62      2.0151506346
    63      2.0547031454
    64      2.2288030083
    65      2.3200777223
    66      2.4450471056
    67      2.5362151452
    68      2.5788233350
    69      2.7169446696
    70      2.8000115858
    71      3.7507967324
    72      4.7662342942
    97     0.25541     0.25541     0.00000     0.0082644628
     1     -2.4215694618
     2     -1.5531580930
     3     -1.5516291661
     4     -1.5497811182
     5     -1.5464758063
     6     -0.9790135524
     7     -0.9517356826
     8     -0.9433699250
     9     -0.8847345200
    10     -0.8768985846
    11     -0.8731669705
    12     -0.4962312443
    13     -0.4800870073
    14     -0.4761626368
    15     -0.4517036767
    16     -0.4338340795
    17     -0.4097729358
    18     -0.3971487000
    19     -0.3923470618
    20     -0.3649499350
    21     -0.2299987721
    22     -0.2255797202
    23     -0.2139624103
    24     -0.1590638312
    25     -0.0845908059
    26     -0.0721811726
    27     -0.0496092701
    28     -0.0387361731
    29     -0.0134557677
    30     -0.0074255852
    31      0.0193069974
    32      0.1889800247
    33      0.1979160224
    34      0.3099934626
    35      0.3352007217
    36      0.3543114147
    37      0.3998860098
    38      0.4361934394
    39      0.5460285309
    40      0.5867666047
    41      0.6647591230
    42      0.7021476828
    43      0.7687216048
    44      0.8058333644
    45      0.8276131227
    46      0.9429333515
    47      1.0694750595
    48      1.1138669785
    49      1.1713110578
    50      1.1921891073
    51      1.1973421142
    52      1.3055979439
    53      1.3651995074
    54      1.4022099170
    55      1.4236296472
    56      1.4397072924
    57      1.4554023208
    58      1.5153389661
    59      1.6938552000
    60      1.6994470483
    61      1.8523694544
    62      2.0113228421
    63      2.0507975114
    64      2.2368092017
    65      2.3117605224
    66      2.4616317598
    67      2.5304434526
    68      2.5590187938
    69      2.7362409578
    70      2.8368608395
    71      3.7274018049
    72      4.8024914773
    98     0.24477     0.24477     0.00000     0.0082644628
     1     -2.4215725372
     2     -1.5531541455
     3     -1.5515357620
     4     -1.5497939090
     5     -1.5464407483
     6     -0.9798214761
     7     -0.9515702150
     8     -0.9435006972
     9     -0.8848827927
    10     -0.8774841675
    11     -0.8734283843
    12     -0.4940377546
    13     -0.4777435473
    14     -0.4717134747
    15     -0.4517257685
    16     -0.4318163254
    17     -0.4094140961
    18     -0.3964288259
    19     -0.3904602527
    20     -0.3665397847
    21     -0.2325955635
    22     -0.2278882539
    23     -0.2166941980
    24     -0.1601683988
    25     -0.0898294492
    26     -0.0757049250
    27     -0.0560513632
    28     -0.0403690851
    29     -0.0152803242
    30     -0.0090862519
    31      0.0155878349
    32      0.1962083672
    33      0.2019885794
    34      0.3098581703
    35      0.3392357240
    36      0.3601529040
    37      0.4023571706
    38      0.4404371549
    39      0.5436181705
    40      0.5767424844
    41      0.6651446604
    42      0.7135469913
    43      0.7662287130
    44      0.8101584902
    45      0.8139575927
    46      0.9395853104
    47      1.0680663674
    48      1.1139233814
    49      1.1691215255
    50      1.1914701597
    51      1.1987611597
    52      1.3162338919
    53      1.3702339123
    54      1.4090621558
    55      1.4291987506
    56      1.4501255876
    57      1.4590800555
    58      1.5124043042
    59      1.6929439141
    60      1.6953270018
    61      1.8450509768
    62      2.0067816118
    63      2.0484395694
    64      2.2445482070
    65      2.3031764007
    66      2.4741277816
    67      2.5287322001
    68      2.5389038719
    69      2.7547313961
    70      2.8720726247
    71      3.7084780863
    72      4.8432963916
    99     0.23413     0.23413     0.00000     0.0082644628
     1     -2.4215756935
     2     -1.5531367215
     3     -1.5514404963
     4     -1.5498069202
     5     -1.5464193728
     6     -0.9805516013
     7     -0.9513986432
     8     -0.9437098120
     9     -0.8850328362
    10     -0.8780808968
    11     -0.8737372501
    12     -0.4917712642
    13     -0.4753871618
    14     -0.4671295722
    15     -0.4517306609
    16     -0.4297064921
    17     -0.4087858926
    18     -0.3956265603
    19     -0.3885377963
    20     -0.3680772638
    21     -0.2352555538
    22     -0.2303032691
    23     -0.2195146167
    24     -0.1613405558
    25     -0.0951984620
    26     -0.0793458947
    27     -0.0624162347
    28     -0.0425180369
    29     -0.0170473244
    30     -0.0107671978
    31      0.0120541531
    32      0.2034518277
    33      0.2057712937
    34      0.3093617039
    35      0.3443889746
    36      0.3661218959
    37      0.4053791072
    38      0.4449685052
    39      0.5412436423
    40      0.5673219143
    41      0.6657775103
    42      0.7250911733
    43      0.7639083683
    44      0.8011084510
    45      0.8142320689
    46      0.9357130465
    47      1.0669046990
    48      1.1141637082
    49      1.1672700205
    50      1.1859405787
    51      1.2052428941
    52      1.3262789862
    53      1.3768383520
    54      1.4161991453
    55      1.4343690478
    56      1.4599288921
    57      1.4629714748
    58      1.5082003984
    59      1.6859828794
    60      1.6958047771
    61      1.8374216787
    62      2.0018440005
    63      2.0479919322
    64      2.2519633623
    65      2.2941922394
    66      2.4774211820
    67      2.5185653007
    68      2.5358746991
    69      2.7720051450
    70      2.9037925093
    71      3.6946049425
    72      4.8883109822
   100     0.22349     0.22349     0.00000     0.0082644628
     1     -2.4215789100
     2     -1.5531052582
     3     -1.5513439453
     4     -1.5498200632
     5     -1.5464124606
     6     -0.9812050554
     7     -0.9512217943
     8     -0.9439843644
     9     -0.8851836813
    10     -0.8786852470
    11     -0.8740996897
    12     -0.4894402065
    13     -0.4730410928
    14     -0.4624327038
    15     -0.4517187085
    16     -0.4275109921
    17     -0.4078755269
    18     -0.3947404317
    19     -0.3865885005
    20     -0.3695396259
    21     -0.2379646290
    22     -0.2328169552
    23     -0.2224150845
    24     -0.1625774607
    25     -0.1006748452
    26     -0.0830898319
    27     -0.0686803020
    28     -0.0451510060
    29     -0.0187454611
    30     -0.0124573074
    31      0.0086734039
    32      0.2093021382
    33      0.2106819662
    34      0.3087080226
    35      0.3504418588
    36      0.3718606055
    37      0.4090318108
    38      0.4498184864
    39      0.5389187917
    40      0.5587117294
    41      0.6666335612
    42      0.7367377815
    43      0.7616703082
    44      0.7890511065
    45      0.8180018362
    46      0.9313522461
    47      1.0662269277
    48      1.1145696650
    49      1.1658381235
    50      1.1807024370
    51      1.2115846173
    52      1.3357192116
    53      1.3850982010
    54      1.4236014428
    55      1.4387534866
    56      1.4670467574
    57      1.4691659500
    58      1.5035750255
    59      1.6786443881
    60      1.6949223982
    61      1.8293009725
    62      1.9968323196
    63      2.0497907081
    64      2.2590103739
    65      2.2846629220
    66      2.4720714738
    67      2.4980590662
    68      2.5510379158
    69      2.7876348992
    70      2.9301594374
    71      3.6861111287
    72      4.9370866758
   101     0.21285     0.21285     0.00000     0.0082644628
     1     -2.4215821655
     2     -1.5530593391
     3     -1.5512466930
     4     -1.5498332451
     5     -1.5464206058
     6     -0.9817838688
     7     -0.9510405722
     8     -0.9443109202
     9     -0.8853343687
    10     -0.8792936568
    11     -0.8745206821
    12     -0.4870532876
    13     -0.4707292562
    14     -0.4576456021
    15     -0.4516905512
    16     -0.4252369900
    17     -0.4066748927
    18     -0.3937724350
    19     -0.3846211034
    20     -0.3709020163
    21     -0.2407086555
    22     -0.2354205080
    23     -0.2253876451
    24     -0.1638754770
    25     -0.1062349744
    26     -0.0869221195
    27     -0.0748211435
    28     -0.0482196841
    29     -0.0203654586
    30     -0.0141456159
    31      0.0054111512
    32      0.2126239596
    33      0.2178683722
    34      0.3080183108
    35      0.3572494023
    36      0.3769453424
    37      0.4134128146
    38      0.4550165741
    39      0.5366557486
    40      0.5511359676
    41      0.6676860939
    42      0.7484131312
    43      0.7594072214
    44      0.7777671070
    45      0.8214170282
    46      0.9265331859
    47      1.0663141775
    48      1.1151175031
    49      1.1649140277
    50      1.1757143411
    51      1.2177416444
    52      1.3447582314
    53      1.3948725323
    54      1.4312420060
    55      1.4417472982
    56      1.4712818423
    57      1.4778819703
    58      1.4995082703
    59      1.6710271804
    60      1.6924799267
    61      1.8205219491
    62      1.9920736884
    63      2.0540927293
    64      2.2656566854
    65      2.2744352768
    66      2.4625287462
    67      2.4774152661
    68      2.5695619561
    69      2.8012063895
    70      2.9495019094
    71      3.6830266718
    72      4.9889885870
   102     0.20220     0.20220     0.00000     0.0082644628
     1     -2.4215854374
     2     -1.5529986933
     3     -1.5511493266
     4     -1.5498463696
     5     -1.5464442192
     6     -0.9822909180
     7     -0.9508559595
     8     -0.9446758987
     9     -0.8854839542
    10     -0.8799025416
    11     -0.8750037097
    12     -0.4846196381
    13     -0.4684757086
    14     -0.4527919670
    15     -0.4516470754
    16     -0.4228924996
    17     -0.4051807211
    18     -0.3927301177
    19     -0.3826443120
    20     -0.3721361317
    21     -0.2434735111
    22     -0.2381040321
    23     -0.2284249355
    24     -0.1652300998
    25     -0.1118544306
    26     -0.0908271124
    27     -0.0808174626
    28     -0.0516662105
    29     -0.0219000094
    30     -0.0158213977
    31      0.0022368609
    32      0.2157804904
    33      0.2249787336
    34      0.3073562237
    35      0.3647149743
    36      0.3809528196
    37      0.4185912824
    38      0.4605881680
    39      0.5344650308
    40      0.5448208118
    41      0.6689064838
    42      0.7570066042
    43      0.7600064443
    44      0.7672351764
    45      0.8244301787
    46      0.9212795493
    47      1.0674704356
    48      1.1157775006
    49      1.1645928621
    50      1.1709497778
    51      1.2236746892
    52      1.3537615931
    53      1.4058403763
    54      1.4390846328
    55      1.4425891933
    56      1.4756622115
    57      1.4861173129
    58      1.4970459860
    59      1.6632482044
    60      1.6884282696
    61      1.8109633558
    62      1.9878937080
    63      2.0610257746
    64      2.2633547836
    65      2.2718805274
    66      2.4512593660
    67      2.4566470843
    68      2.5888333010
    69      2.8123542695
    70      2.9605321183
    71      3.6850526649
    72      5.0431457368
   103     0.19156     0.19156     0.00000     0.0082644628
     1     -2.4215887026
     2     -1.5529231943
     3     -1.5510524330
     4     -1.5498593375
     5     -1.5464835335
     6     -0.9827298572
     7     -0.9506690172
     8     -0.9450659250
     9     -0.8856315137
    10     -0.8805083069
    11     -0.8755504723
    12     -0.4821490288
    13     -0.4663039624
    14     -0.4515893836
    15     -0.4478964447
    16     -0.4204864971
    17     -0.4033946892
    18     -0.3916296442
    19     -0.3806668503
    20     -0.3732080565
    21     -0.2462450746
    22     -0.2408564331
    23     -0.2315201041
    24     -0.1666358798
    25     -0.1175078560
    26     -0.0947875585
    27     -0.0866490250
    28     -0.0554291718
    29     -0.0233436802
    30     -0.0174742469
    31     -0.0008715243
    32      0.2188136546
    33      0.2319790799
    34      0.3067520628
    35      0.3727660092
    36      0.3835598530
    37      0.4245399467
    38      0.4665519918
    39      0.5323556662
    40      0.5399684581
    41      0.6702645364
    42      0.7543621264
    43      0.7574320912
    44      0.7713678653
    45      0.8269994458
    46      0.9156115353
    47      1.0699961733
    48      1.1165140260
    49      1.1649758938
    50      1.1663987413
    51      1.2293501330
    52      1.3631273812
    53      1.4176152018
    54      1.4407541505
    55      1.4470833768
    56      1.4801885761
    57      1.4939065799
    58      1.4969145662
    59      1.6554426338
    60      1.6828486823
    61      1.8005667108
    62      1.9846022178
    63      2.0705528426
    64      2.2512761556
    65      2.2776697500
    66      2.4357640243
    67      2.4393234035
    68      2.6076944694
    69      2.8208008303
    70      2.9624881189
    71      3.6915748310
    72      5.0984494682
   104     0.18092     0.18092     0.00000     0.0082644628
     1     -2.4215919378
     2     -1.5528328588
     3     -1.5509565957
     4     -1.5498720487
     5     -1.5465386113
     6     -0.9831050331
     7     -0.9504808829
     8     -0.9454681522
     9     -0.8857761494
    10     -0.8811073613
    11     -0.8761606772
    12     -0.4796521325
    13     -0.4642361702
    14     -0.4515187705
    15     -0.4429845667
    16     -0.4180290512
    17     -0.4013235262
    18     -0.3904999915
    19     -0.3786975174
    20     -0.3740751013
    21     -0.2490091760
    22     -0.2436652991
    23     -0.2346666653
    24     -0.1680863465
    25     -0.1231688310
    26     -0.0987841210
    27     -0.0922965629
    28     -0.0594477569
    29     -0.0246927896
    30     -0.0190941487
    31     -0.0039251929
    32      0.2217621975
    33      0.2388341863
    34      0.3062178877
    35      0.3813388143
    36      0.3846078022
    37      0.4311128012
    38      0.4729175478
    39      0.5303353283
    40      0.5367204746
    41      0.6717284396
    42      0.7483334197
    43      0.7513838607
    44      0.7823117737
    45      0.8290913983
    46      0.9095529560
    47      1.0741567632
    48      1.1172863946
    49      1.1620677300
    50      1.1661678242
    51      1.2347401504
    52      1.3731840588
    53      1.4298241040
    54      1.4364164384
    55      1.4551832093
    56      1.4848862296
    57      1.4990713552
    58      1.5012780763
    59      1.6477640854
    60      1.6759331135
    61      1.7893356526
    62      1.9824737834
    63      2.0824547851
    64      2.2380789911
    65      2.2830205279
    66      2.4147900898
    67      2.4272656873
    68      2.6255322468
    69      2.8263920905
    70      2.9551943772
    71      3.7017325399
    72      5.1536142933
   105     0.17028     0.17028     0.00000     0.0082644628
     1     -2.4215951197
     2     -1.5527278452
     3     -1.5508623914
     4     -1.5498844038
     5     -1.5466093550
     6     -0.9834213811
     7     -0.9502927684
     8     -0.9458705548
     9     -0.8859169951
    10     -0.8816961301
    11     -0.8768319057
    12     -0.4771408062
    13     -0.4622922300
    14     -0.4514367052
    15     -0.4380826486
    16     -0.4155314726
    17     -0.3989791473
    18     -0.3893876362
    19     -0.3767452585
    20     -0.3746822362
    21     -0.2517515152
    22     -0.2465167690
    23     -0.2378582689
    24     -0.1695739303
    25     -0.1288097596
    26     -0.1027950302
    27     -0.0977416517
    28     -0.0636638267
    29     -0.0259452595
    30     -0.0206715412
    31     -0.0069243199
    32      0.2246613504
    33      0.2455081118
    34      0.3057560546
    35      0.3840929209
    36      0.3903700088
    37      0.4380978151
    38      0.4796827320
    39      0.5284104762
    40      0.5351203270
    41      0.6732643552
    42      0.7399141388
    43      0.7480064546
    44      0.7926263295
    45      0.8306840957
    46      0.9031397315
    47      1.0801473073
    48      1.1180506211
    49      1.1579815757
    50      1.1682714501
    51      1.2398226861
    52      1.3841439888
    53      1.4302882529
    54      1.4421195781
    55      1.4633219662
    56      1.4898208172
    57      1.5028824755
    58      1.5082536004
    59      1.6403850859
    60      1.6679631866
    61      1.7773224237
    62      1.9817285121
    63      2.0963273758
    64      2.2236894636
    65      2.2879360196
    66      2.3937886904
    67      2.4154199385
    68      2.6419454642
    69      2.8291245821
    70      2.9390493317
    71      3.7145251358
    72      5.2073014217
   106     0.15963     0.15963     0.00000     0.0082644628
     1     -2.4215982256
     2     -1.5526084509
     3     -1.5507703869
     4     -1.5498963075
     5     -1.5466955190
     6     -0.9836843017
     7     -0.9501059539
     8     -0.9462621966
     9     -0.8860532232
    10     -0.8822710693
    11     -0.8775595549
    12     -0.4746283624
    13     -0.4604888941
    14     -0.4513448174
    15     -0.4332176614
    16     -0.4130064825
    17     -0.3963788427
    18     -0.3883585279
    19     -0.3749612370
    20     -0.3748192475
    21     -0.2544575552
    22     -0.2493953885
    23     -0.2410883600
    24     -0.1710898871
    25     -0.1344017443
    26     -0.1067958914
    27     -0.1029665771
    28     -0.0680222808
    29     -0.0271004441
    30     -0.0221973664
    31     -0.0098596224
    32      0.2275431260
    33      0.2519648313
    34      0.3053639258
    35      0.3821229735
    36      0.3997918452
    37      0.4452868824
    38      0.4868317271
    39      0.5265864954
    40      0.5350926227
    41      0.6748357336
    42      0.7321491454
    43      0.7441943290
    44      0.8020892297
    45      0.8317701818
    46      0.8964262595
    47      1.0880537109
    48      1.1187619947
    49      1.1541935691
    50      1.1713793257
    51      1.2445812778
    52      1.3960874110
    53      1.4231105681
    54      1.4541461936
    55      1.4714333455
    56      1.4951229718
    57      1.5076500575
    58      1.5148485230
    59      1.6334976868
    60      1.6592840130
    61      1.7646097725
    62      1.9825185132
    63      2.1115832783
    64      2.2081082437
    65      2.2924250408
    66      2.3728981712
    67      2.4040083610
    68      2.6566029806
    69      2.8291563105
    70      2.9149805623
    71      3.7289176903
    72      5.2582873387
   107     0.14899     0.14899     0.00000     0.0082644628
     1     -2.4216012340
     2     -1.5524751102
     3     -1.5506811368
     4     -1.5499076708
     5     -1.5467967230
     6     -0.9838995165
     7     -0.9499217812
     8     -0.9466334752
     9     -0.8861840510
    10     -0.8828286818
    11     -0.8783368477
    12     -0.4721297955
    13     -0.4588389882
    14     -0.4512448847
    15     -0.4284171114
    16     -0.4104684002
    17     -0.3935455228
    18     -0.3874895261
    19     -0.3748402609
    20     -0.3729289834
    21     -0.2571124037
    22     -0.2522839519
    23     -0.2443497028
    24     -0.1726242259
    25     -0.1399144345
    26     -0.1107596649
    27     -0.1079542112
    28     -0.0724703452
    29     -0.0281589421
    30     -0.0236631111
    31     -0.0127148563
    32      0.2304368694
    33      0.2581689138
    34      0.3050364399
    35      0.3788781666
    36      0.4095296579
    37      0.4525112019
    38      0.4943332954
    39      0.5248678342
    40      0.5364527475
    41      0.6764025039
    42      0.7250136778
    43      0.7399434202
    44      0.8104882830
    45      0.8323596126
    46      0.8894872598
    47      1.0977967795
    48      1.1193782085
    49      1.1508217650
    50      1.1755627932
    51      1.2490047362
    52      1.4089552557
    53      1.4154294594
    54      1.4654917510
    55      1.4794504926
    56      1.5010144496
    57      1.5128543287
    58      1.5210721106
    59      1.6273136690
    60      1.6502718923
    61      1.7512950537
    62      1.9849223601
    63      2.1274454805
    64      2.1914433483
    65      2.2965008038
    66      2.3523859914
    67      2.3931805933
    68      2.6691233544
    69      2.8267974515
    70      2.8844231751
    71      3.7439165192
    72      5.3056425964
   108     0.13835     0.13835     0.00000     0.0082644628
     1     -2.4216041247
     2     -1.5523283920
     3     -1.5505951818
     4     -1.5499184145
     5     -1.5469124642
     6     -0.9840729083
     7     -0.9497416439
     8     -0.9469763414
     9     -0.8863087468
    10     -0.8833655341
    11     -0.8791549088
    12     -0.4696619301
    13     -0.4573508487
    14     -0.4511388182
    15     -0.4237089851
    16     -0.4079333459
    17     -0.3905079990
    18     -0.3868419545
    19     -0.3742710768
    20     -0.3710843971
    21     -0.2597006927
    22     -0.2551633349
    23     -0.2476337399
    24     -0.1741656422
    25     -0.1453158371
    26     -0.1146568242
    27     -0.1126879155
    28     -0.0769563817
    29     -0.0291223976
    30     -0.0250608367
    31     -0.0154695687
    32      0.2333697795
    33      0.2640861929
    34      0.3047674880
    35      0.3745775712
    36      0.4195004000
    37      0.4596434652
    38      0.5021395941
    39      0.5232581324
    40      0.5389439940
    41      0.6779203892
    42      0.7184836581
    43      0.7352796864
    44      0.8176439497
    45      0.8324815646
    46      0.8824150095
    47      1.1089905242
    48      1.1198626289
    49      1.1481815392
    50      1.1808597099
    51      1.2530866952
    52      1.4076164270
    53      1.4225474030
    54      1.4756789028
    55      1.4873096270
    56      1.5077862029
    57      1.5181506726
    58      1.5269280460
    59      1.6220624150
    60      1.6412987093
    61      1.7374798161
    62      1.9889464245
    63      2.1429126402
    64      2.1739443016
    65      2.3001797519
    66      2.3327366907
    67      2.3830339372
    68      2.6788583375
    69      2.8224802945
    70      2.8494102061
    71      3.7586098366
    72      5.3488758806
   109     0.12771     0.12771     0.00000     0.0082644628
     1     -2.4216068794
     2     -1.5521689990
     3     -1.5505130470
     4     -1.5499284713
     5     -1.5470421275
     6     -0.9842103516
     7     -0.9495669749
     8     -0.9472844882
     9     -0.8864266358
    10     -0.8838782764
    11     -0.8800028982
    12     -0.4672434652
    13     -0.4560280684
    14     -0.4510286443
    15     -0.4191218397
    16     -0.4054194523
    17     -0.3873012482
    18     -0.3864297812
    19     -0.3732613404
    20     -0.3692959656
    21     -0.2622064691
    22     -0.2580123233
    23     -0.2509297631
    24     -0.1757014595
    25     -0.1505720943
    26     -0.1184556860
    27     -0.1171514840
    28     -0.0814286795
    29     -0.0299932975
    30     -0.0263831997
    31     -0.0181016212
    32      0.2363672136
    33      0.2696843772
    34      0.3045506227
    35      0.3694484443
    36      0.4296116296
    37      0.4665865556
    38      0.5101856130
    39      0.5217603408
    40      0.5422845365
    41      0.6793407064
    42      0.7125359696
    43      0.7302552649
    44      0.8234300002
    45      0.8321850416
    46      0.8753137273
    47      1.1201872560
    48      1.1203800456
    49      1.1473473015
    50      1.1872630025
    51      1.2568250590
    52      1.3999349365
    53      1.4365351732
    54      1.4843066673
    55      1.4949532385
    56      1.5156187978
    57      1.5233182222
    58      1.5324150987
    59      1.6179809091
    60      1.6326977422
    61      1.7232653168
    62      1.9945300155
    63      2.1560310458
    64      2.1566716574
    65      2.3034805129
    66      2.3147936099
    67      2.3736271509
    68      2.6843321749
    69      2.8130113632
    70      2.8167128391
    71      3.7721882375
    72      5.3880010695
   110     0.11706     0.11706     0.00000     0.0082644628
     1     -2.4216094813
     2     -1.5519977699
     3     -1.5504352405
     4     -1.5499377872
     5     -1.5471849884
     6     -0.9843175414
     7     -0.9493992319
     8     -0.9475534994
     9     -0.8865371041
    10     -0.8843636633
    11     -0.8808682011
    12     -0.4648948950
    13     -0.4548695936
    14     -0.4509164794
    15     -0.4146851065
    16     -0.4029470700
    17     -0.3862150327
    18     -0.3839666064
    19     -0.3718792394
    20     -0.3675748239
    21     -0.2646131080
    22     -0.2608074507
    23     -0.2542238726
    24     -0.1772175842
    25     -0.1556472476
    26     -0.1221228897
    27     -0.1213291283
    28     -0.0858345276
    29     -0.0307747722
    30     -0.0276234626
    31     -0.0205892042
    32      0.2394526636
    33      0.2749335589
    34      0.3043794052
    35      0.3637032052
    36      0.4397605676
    37      0.4732615646
    38      0.5183892706
    39      0.5203768301
    40      0.5462061191
    41      0.6806111259
    42      0.7071486789
    43      0.7249434969
    44      0.8277884863
    45      0.8315377289
    46      0.8682933138
    47      1.1203350152
    48      1.1282167545
    49      1.1517827378
    50      1.1947123056
    51      1.2602213726
    52      1.3925870607
    53      1.4505001849
    54      1.4913112372
    55      1.5023326129
    56      1.5242837655
    57      1.5282252091
    58      1.5375278971
    59      1.6152822445
    60      1.6247350847
    61      1.7087529698
    62      2.0015513566
    63      2.1383077242
    64      2.1669752908
    65      2.2999305190
    66      2.3064229791
    67      2.3649912736
    68      2.6818464533
    69      2.7806081056
    70      2.8100246767
    71      3.7839635966
    72      5.4235017093
   111     0.10642     0.10642     0.00000     0.0082644628
     1     -2.4216119153
     2     -1.5518156860
     3     -1.5503622521
     4     -1.5499463219
     5     -1.5473402092
     6     -0.9843998313
     7     -0.9492398792
     8     -0.9477809424
     9     -0.8866396011
    10     -0.8848185771
    11     -0.8817366706
    12     -0.4626382950
    13     -0.4538701630
    14     -0.4508044983
    15     -0.4104296355
    16     -0.4005389457
    17     -0.3861354922
    18     -0.3805518573
    19     -0.3702254313
    20     -0.3659328646
    21     -0.2669032619
    22     -0.2635228677
    23     -0.2574977146
    24     -0.1786984819
    25     -0.1605030274
    26     -0.1256239990
    27     -0.1252055068
    28     -0.0901197309
    29     -0.0314704054
    30     -0.0287754970
    31     -0.0229122434
    32      0.2426473265
    33      0.2798065915
    34      0.3042475677
    35      0.3575275043
    36      0.4498330487
    37      0.4795995595
    38      0.5191094875
    39      0.5266521141
    40      0.5504761592
    41      0.6816779329
    42      0.7023012117
    43      0.7194339970
    44      0.8306227502
    45      0.8307365373
    46      0.8614639838
    47      1.1203011712
    48      1.1298240000
    49      1.1637842972
    50      1.2030900834
    51      1.2632801454
    52      1.3857372869
    53      1.4640025062
    54      1.4969960430
    55      1.5094097460
    56      1.5328132255
    57      1.5331101147
    58      1.5422577596
    59      1.6140774454
    60      1.6175891814
    61      1.6940483467
    62      2.0098327075
    63      2.1215480738
    64      2.1717613002
    65      2.2899698957
    66      2.3090275173
    67      2.3571383490
    68      2.6652359842
    69      2.7600263674
    70      2.8029156206
    71      3.7933976699
    72      5.4561933769
   112     0.09578     0.09578     0.00000     0.0082644628
     1     -2.4216141678
     2     -1.5516238868
     3     -1.5502945523
     4     -1.5499540482
     5     -1.5475068214
     6     -0.9844620941
     7     -0.9490903682
     8     -0.9479663876
     9     -0.8867336402
    10     -0.8852400526
    11     -0.8825929253
    12     -0.4604969762
    13     -0.4530210245
    14     -0.4506948957
    15     -0.4063884257
    16     -0.3982203353
    17     -0.3861335800
    18     -0.3771112357
    19     -0.3684033930
    20     -0.3643828036
    21     -0.2690588595
    22     -0.2661302759
    23     -0.2607270043
    24     -0.1801271886
    25     -0.1650987266
    26     -0.1289241870
    27     -0.1287657909
    28     -0.0942286307
    29     -0.0320840572
    30     -0.0298337801
    31     -0.0250532193
    32      0.2459691799
    33      0.2842793232
    34      0.3041490928
    35      0.3510780106
    36      0.4597023735
    37      0.4855373122
    38      0.5179598017
    39      0.5348604298
    40      0.5549042755
    41      0.6824902861
    42      0.6979744917
    43      0.7138286413
    44      0.8295332118
    45      0.8323646213
    46      0.8549323636
    47      1.1200938135
    48      1.1285962057
    49      1.1794942020
    50      1.2122220877
    51      1.2660081590
    52      1.3795216572
    53      1.4766558029
    54      1.5017873088
    55      1.5161590094
    56      1.5370908326
    57      1.5413206719
    58      1.5465935433
    59      1.6113397496
    60      1.6142305084
    61      1.6792673720
    62      2.0191442273
    63      2.1066364460
    64      2.1696823970
    65      2.2861728643
    66      2.3113143032
    67      2.3500682775
    68      2.6346610894
    69      2.7526528823
    70      2.7958161763
    71      3.8001406431
    72      5.4870111193
   113     0.08514     0.08514     0.00000     0.0082644628
     1     -2.4216162260
     2     -1.5514237004
     3     -1.5502325893
     4     -1.5499609503
     5     -1.5476836903
     6     -0.9845086145
     7     -0.9489521148
     8     -0.9481113364
     9     -0.8868187977
    10     -0.8856253027
    11     -0.8834207022
    12     -0.4584950136
    13     -0.4523108360
    14     -0.4505898430
    15     -0.4025973799
    16     -0.3960190044
    17     -0.3861681059
    18     -0.3737054231
    19     -0.3665065197
    20     -0.3629381894
    21     -0.2710611760
    22     -0.2685989771
    23     -0.2638798782
    24     -0.1814853817
    25     -0.1693912353
    26     -0.1319957649
    27     -0.1319889665
    28     -0.0981046207
    29     -0.0326197030
    30     -0.0307933854
    31     -0.0269974990
    32      0.2494313882
    33      0.2883306884
    34      0.3040782657
    35      0.3444863531
    36      0.4692282685
    37      0.4910158371
    38      0.5169289368
    39      0.5428864498
    40      0.5593381756
    41      0.6830067094
    42      0.6941510481
    43      0.7082389676
    44      0.8283648000
    45      0.8328279081
    46      0.8487989328
    47      1.1197334526
    48      1.1266339686
    49      1.1962816263
    50      1.2218805613
    51      1.2684137846
    52      1.3740492410
    53      1.4881493199
    54      1.5061012718
    55      1.5225691689
    56      1.5411268171
    57      1.5483820836
    58      1.5505224759
    59      1.6059672417
    60      1.6151984993
    61      1.6645433774
    62      2.0292068269
    63      2.0944498426
    64      2.1615268514
    65      2.2878182478
    66      2.3133027725
    67      2.3437739815
    68      2.5979965876
    69      2.7519845720
    70      2.7890649862
    71      3.8040701947
    72      5.5167681584
   114     0.07450     0.07450     0.00000     0.0082644628
     1     -2.4216180779
     2     -1.5512167032
     3     -1.5501767866
     4     -1.5499670219
     5     -1.5478694471
     6     -0.9845430230
     7     -0.9488264760
     8     -0.9482190411
     9     -0.8868947099
    10     -0.8859717449
    11     -0.8842032677
    12     -0.4566566690
    13     -0.4517266421
    14     -0.4504914413
    15     -0.3990958385
    16     -0.3939650436
    17     -0.3862138288
    18     -0.3704016220
    19     -0.3646170660
    20     -0.3616133246
    21     -0.2728909976
    22     -0.2708961048
    23     -0.2669151906
    24     -0.1827535440
    25     -0.1733353302
    26     -0.1348819548
    27     -0.1347849290
    28     -0.1016911010
    29     -0.0330812888
    30     -0.0316499697
    31     -0.0287333099
    32      0.2530396662
    33      0.2919426735
    34      0.3040297256
    35      0.3378662374
    36      0.4782563694
    37      0.4959805183
    38      0.5160177944
    39      0.5505892838
    40      0.5636538008
    41      0.6832035151
    42      0.6908150986
    43      0.7027851221
    44      0.8272072359
    45      0.8323333585
    46      0.8431564179
    47      1.1192517876
    48      1.1245452148
    49      1.2129643404
    50      1.2317880859
    51      1.2705063329
    52      1.3694002514
    53      1.4980903892
    54      1.5105045061
    55      1.5286465029
    56      1.5450352763
    57      1.5540309452
    58      1.5541514042
    59      1.6013640254
    60      1.6160294090
    61      1.6500334859
    62      2.0396942647
    63      2.0856803949
    64      2.1496932586
    65      2.2927084819
    66      2.3150111765
    67      2.3382451228
    68      2.5608515319
    69      2.7535811691
    70      2.7829035942
    71      3.8053163492
    72      5.5459385119
   115     0.06385     0.06385     0.00000     0.0082644628
     1     -2.4216197121
     2     -1.5510048382
     3     -1.5501275385
     4     -1.5499722634
     5     -1.5480623618
     6     -0.9845682751
     7     -0.9487147247
     8     -0.9482942111
     9     -0.8869610695
    10     -0.8862770267
    11     -0.8849238878
    12     -0.4550057312
    13     -0.4512548327
    14     -0.4504016751
    15     -0.3959266003
    16     -0.3920904209
    17     -0.3862572201
    18     -0.3672737099
    19     -0.3628085394
    20     -0.3604230639
    21     -0.2745289087
    22     -0.2729871189
    23     -0.2697810005
    24     -0.1839112669
    25     -0.1768843191
    26     -0.1374117830
    27     -0.1372804635
    28     -0.1049327848
    29     -0.0334726024
    30     -0.0323997570
    31     -0.0302514867
    32      0.2567877791
    33      0.2951001812
    34      0.3039985244
    35      0.3313224990
    36      0.4866188628
    37      0.5003819346
    38      0.5152270661
    39      0.5578153386
    40      0.5677433075
    41      0.6830840658
    42      0.6879526131
    43      0.6975961280
    44      0.8261359808
    45      0.8311249082
    46      0.8380887437
    47      1.1186896906
    48      1.1225447069
    49      1.2287413024
    50      1.2416207628
    51      1.2722954539
    52      1.3656224218
    53      1.5055901350
    54      1.5161336423
    55      1.5344197346
    56      1.5489489936
    57      1.5571052244
    58      1.5587818497
    59      1.5973568593
    60      1.6156415053
    61      1.6359223514
    62      2.0502345217
    63      2.0806332356
    64      2.1365074143
    65      2.2988191913
    66      2.3164562295
    67      2.3334706607
    68      2.5259116210
    69      2.7557269760
    70      2.7774850834
    71      3.8042582763
    72      5.5745097234
   116     0.05321     0.05321     0.00000     0.0082644628
     1     -2.4216211176
     2     -1.5507906594
     3     -1.5500852043
     4     -1.5499766797
     5     -1.5482600883
     6     -0.9845866739
     7     -0.9486180256
     8     -0.9483426044
     9     -0.8870176215
    10     -0.8865390507
    11     -0.8855663518
    12     -0.4535648057
    13     -0.4508820130
    14     -0.4503223667
    15     -0.3931351719
    16     -0.3904281828
    17     -0.3862923425
    18     -0.3644022384
    19     -0.3611476230
    20     -0.3593824615
    21     -0.2759557271
    22     -0.2748366474
    23     -0.2724137110
    24     -0.1849377433
    25     -0.1799911324
    26     -0.1395737471
    27     -0.1394464380
    28     -0.1077772462
    29     -0.0337971602
    30     -0.0330395213
    31     -0.0315451022
    32      0.2606493671
    33      0.2977908256
    34      0.3039801926
    35      0.3249629627
    36      0.4941371103
    37      0.5041768202
    38      0.5145572766
    39      0.5643984343
    40      0.5715034232
    41      0.6826868717
    42      0.6855513612
    43      0.6928107995
    44      0.8252059594
    45      0.8294680484
    46      0.8336702720
    47      1.1180944449
    48      1.1207357620
    49      1.2429538671
    50      1.2510113073
    51      1.2737905973
    52      1.3627249681
    53      1.5101643169
    54      1.5237652280
    55      1.5399470860
    56      1.5529843961
    57      1.5597321195
    58      1.5625114985
    59      1.5937369344
    60      1.6132245449
    61      1.6224207007
    62      2.0604107360
    63      2.0790796329
    64      2.1235881869
    65      2.3048922052
    66      2.3176528352
    67      2.3294405427
    68      2.4946068165
    69      2.7577917996
    70      2.7728913097
    71      3.8014859974
    72      5.6019356439
   117     0.04257     0.04257     0.00000     0.0082644628
     1     -2.4216222841
     2     -1.5505778697
     3     -1.5500501031
     4     -1.5499802782
     5     -1.5484591183
     6     -0.9845999312
     7     -0.9485374114
     8     -0.9483705237
     9     -0.8870641584
    10     -0.8867559980
    11     -0.8861155397
    12     -0.4523545867
    13     -0.4505957436
    14     -0.4502551337
    15     -0.3907680910
    16     -0.3890112414
    17     -0.3863177682
    18     -0.3618736511
    19     -0.3596947005
    20     -0.3585062470
    21     -0.2771531023
    22     -0.2764097385
    23     -0.2747386392
    24     -0.1858124892
    25     -0.1826099156
    26     -0.1413576165
    27     -0.1412568381
    28     -0.1101765807
    29     -0.0340581088
    30     -0.0335665690
    31     -0.0326090664
    32      0.2645619994
    33      0.3000046883
    34      0.3039708075
    35      0.3189169600
    36      0.5006271423
    37      0.5073288239
    38      0.5140088179
    39      0.5701607004
    40      0.5748264139
    41      0.6820897202
    42      0.6836009479
    43      0.6885779395
    44      0.8244489258
    45      0.8276339441
    46      0.8299651739
    47      1.1175163064
    48      1.1191819991
    49      1.2550652745
    50      1.2595551828
    51      1.2750005444
    52      1.3606689145
    53      1.5129763069
    54      1.5325212499
    55      1.5453244089
    56      1.5572077825
    57      1.5618995320
    58      1.5655178942
    59      1.5902913252
    60      1.6084803277
    61      1.6097560295
    62      2.0697635598
    63      2.0802532503
    64      2.1119813977
    65      2.3102596756
    66      2.3186138790
    67      2.3261468139
    68      2.4678413173
    69      2.7595425569
    70      2.7691534600
    71      3.7977297871
    72      5.6271981968
   118     0.03193     0.03193     0.00000     0.0082644628
     1     -2.4216232024
     2     -1.5503725841
     3     -1.5500225068
     4     -1.5499830667
     5     -1.5486535086
     6     -0.9846092533
     7     -0.9484737604
     8     -0.9483842474
     9     -0.8871005166
    10     -0.8869263485
    11     -0.8865580088
    12     -0.4513931524
    13     -0.4503851349
    14     -0.4502013528
    15     -0.3888703476
    16     -0.3878707385
    17     -0.3863344547
    18     -0.3597776572
    19     -0.3585031120
    20     -0.3578081400
    21     -0.2781042642
    22     -0.2776735318
    23     -0.2766731122
    24     -0.1865163034
    25     -0.1846981024
    26     -0.1427546394
    27     -0.1426893623
    28     -0.1120890417
    29     -0.0342581404
    30     -0.0339787222
    31     -0.0334397501
    32      0.2683942815
    33      0.3017340672
    34      0.3039670593
    35      0.3133697841
    36      0.5059086921
    37      0.5098088858
    38      0.5135819775
    39      0.5749165606
    40      0.5775962068
    41      0.6814065508
    42      0.6820928391
    43      0.6850535655
    44      0.8238752912
    45      0.8258825896
    46      0.8270268717
    47      1.1170045520
    48      1.1179286931
    49      1.2646883618
    50      1.2668253016
    51      1.2759330115
    52      1.3593563583
    53      1.5148775470
    54      1.5417676258
    55      1.5506893645
    56      1.5616144240
    57      1.5635969309
    58      1.5678906679
    59      1.5868307617
    60      1.5981552797
    61      1.6016079457
    62      2.0778003777
    63      2.0830139952
    64      2.1023729964
    65      2.3145931803
    66      2.3193500734
    67      2.3235843890
    68      2.4462737358
    69      2.7609029174
    70      2.7662717902
    71      3.7937685228
    72      5.6489661815
   119     0.02128     0.02128     0.00000     0.0082644628
     1     -2.4216238645
     2     -1.5501864521
     3     -1.5500026340
     4     -1.5499850527
     5     -1.5488317514
     6     -0.9846154402
     7     -0.9484277775
     8     -0.9483894428
     9     -0.8871265724
    10     -0.8870488998
    11     -0.8868825685
    12     -0.4506953194
    13     -0.4502412998
    14     -0.4501621279
    15     -0.3874821418
    16     -0.3870340758
    17     -0.3863443213
    18     -0.3582015323
    19     -0.3576175308
    20     -0.3573000497
    21     -0.2787948763
    22     -0.2785992570
    23     -0.2781331968
    24     -0.1870324148
    25     -0.1862188332
    26     -0.1437577466
    27     -0.1437259712
    28     -0.1134805190
    29     -0.0343994231
    30     -0.0342743039
    31     -0.0340346631
    32      0.2718784954
    33      0.3029732427
    34      0.3039663092
    35      0.3086308449
    36      0.5098177581
    37      0.5115951836
    38      0.5132769587
    39      0.5784830795
    40      0.5796924741
    41      0.6807740364
    42      0.6810203812
    43      0.6823922781
    44      0.8234799671
    45      0.8244447011
    46      0.8248975337
    47      1.1166033013
    48      1.1170095005
    49      1.2716050966
    50      1.2724015499
    51      1.2765943284
    52      1.3586302570
    53      1.5161513728
    54      1.5512835404
    55      1.5562024389
    56      1.5648157358
    57      1.5661272762
    58      1.5696854479
    59      1.5832130266
    60      1.5878333609
    61      1.5931424843
    62      2.0840214596
    63      2.0861137129
    64      2.0952197935
    65      2.3177425212
    66      2.3198698480
    67      2.3217515529
    68      2.4304302840
    69      2.7618606189
    70      2.7642319282
    71      3.7903321971
    72      5.6658216187
   120     0.01064     0.01064     0.00000     0.0082644628
     1     -2.4216242644
     2     -1.5500436804
     3     -1.5499906450
     4     -1.5499862418
     5     -1.5489697460
     6     -0.9846189812
     7     -0.9483999781
     8     -0.9483906184
     9     -0.8871422399
    10     -0.8871227818
    11     -0.8870807992
    12     -0.4502720942
    13     -0.4501576790
    14     -0.4501382652
    15     -0.3866354257
    16     -0.3865228209
    17     -0.3863493128
    18     -0.3572207987
    19     -0.3570719308
    20     -0.3569912481
    21     -0.2792139043
    22     -0.2791643522
    23     -0.2790443611
    24     -0.1873476950
    25     -0.1871434574
    26     -0.1443617367
    27     -0.1443533745
    28     -0.1143257574
    29     -0.0344835459
    30     -0.0344521257
    31     -0.0343922030
    32      0.2745027245
    33      0.3037182792
    34      0.3039666372
    35      0.3052418409
    36      0.5122214988
    37      0.5126727376
    38      0.5130938963
    39      0.5806991330
    40      0.5810043533
    41      0.6803268109
    42      0.6803788130
    43      0.6807307662
    44      0.8232505633
    45      0.8235030800
    46      0.8236076354
    47      1.1163475186
    48      1.1164483426
    49      1.2757454230
    50      1.2759179084
    51      1.2769891915
    52      1.3583023871
    53      1.5168928608
    54      1.5605513523
    55      1.5618911424
    56      1.5655496108
    57      1.5706030267
    58      1.5711661289
    59      1.5790995466
    60      1.5793747163
    61      1.5838467766
    62      2.0879737952
    63      2.0884629338
    64      2.0908169199
    65      2.3196459422
    66      2.3201792721
    67      2.3206497725
    68      2.4207317429
    69      2.7624263092
    70      2.7630166262
    71      3.7880129756
    72      5.6765115091
   121    -0.00000    -0.00000     0.00000     0.0082644628
     1     -2.4216243981
     2     -1.5499866377
     3     -1.5499866377
     4     -1.5499866377
     5     -1.5490251890
     6     -0.9846201349
     7     -0.9483906765
     8     -0.9483906765
     9     -0.8871474680
    10     -0.8871474680
    11     -0.8871474680
    12     -0.4501302561
    13     -0.4501302561
    14     -0.4501302561
    15     -0.3863508115
    16     -0.3863508115
    17     -0.3863508115
    18     -0.3568876381
    19     -0.3568876381
    20     -0.3568876381
    21     -0.2793543758
    22     -0.2793543758
    23     -0.2793543758
    24     -0.1874537517
    25     -0.1874537517
    26     -0.1445634244
    27     -0.1445634244
    28     -0.1146092467
    29     -0.0345114782
    30     -0.0345114782
    31     -0.0345114782
    32      0.2755207707
    33      0.3039668768
    34      0.3039668768
    35      0.3039668768
    36      0.5130328672
    37      0.5130328672
    38      0.5130328672
    39      0.5814515134
    40      0.5814515134
    41      0.6801652749
    42      0.6801652749
    43      0.6801652749
    44      0.8231756123
    45      0.8231756123
    46      0.8231756123
    47      1.1162596741
    48      1.1162596741
    49      1.2771204878
    50      1.2771204878
    51      1.2771204878
    52      1.3582139883
    53      1.5171369475
    54      1.5657946719
    55      1.5657946719
    56      1.5657946719
    57      1.5741522522
    58      1.5741522522
    59      1.5741522522
    60      1.5760561344
    61      1.5760561344
    62      2.0893312564
    63      2.0893312564
    64      2.0893312564
    65      2.3202820058
    66      2.3202820058
    67      2.3202820058
    68      2.4174644701
    69      2.7626130723
    70      2.7626130723
    71      3.7871955023
    72      5.6801766508
