CRYSTAL
PRIMVEC          1
    5.42935818    0.00000000    0.00000000
    0.00000000    5.42935818    0.00000000
    0.00000000    0.00000000    5.42935818
PRIMCOORD        1
       8       1
  Si      0.05429358      0.05429358      0.05429358	-0.0167838758	-0.0167838758	-0.0167838758
  Si      2.71467909      2.71467909      0.00000000	0.0010093991	0.0010093991	-0.0018735584
  Si      2.71467909      0.00000000      2.71467909	0.0010093991	-0.0018735584	0.0010093991
  Si      0.00000000      2.71467909      2.71467909	-0.0018735584	0.0010093991	0.0010093991
  Si      1.35733955      1.35733955      1.35733955	0.0106739842	0.0106739842	0.0106739842
  Si      1.35733955      4.07201864      4.07201864	-0.0014069169	0.0036635302	0.0036635302
  Si      4.07201864      1.35733955      4.07201864	0.0036635302	-0.0014069169	0.0036635302
  Si      4.07201864      4.07201864      1.35733955	0.0036635302	0.0036635302	-0.0014069169
