CRYSTAL
PRIMVEC          1
    5.42935818    0.00000000    0.00000000
    0.00000000    5.42935818    0.00000000
    0.00000000    0.00000000    5.42935818
PRIMCOORD        1
       8       1
  Si      0.05429358      0.05429358      0.05429358
  Si      2.71467909      2.71467909      0.00000000
  Si      2.71467909      0.00000000      2.71467909
  Si      0.00000000      2.71467909      2.71467909
  Si      1.35733955      1.35733955      1.35733955
  Si      1.35733955      4.07201864      4.07201864
  Si      4.07201864      1.35733955      4.07201864
  Si      4.07201864      4.07201864      1.35733955
