1  3
C     4    0.348830   -8.513771    1.228432    0.000000    0.000000
           0.304553    9.522842    0.000000    0.000000
           0.232677    0.000001    0.000000    0.000000
                       0.000000    0.000000    0.000000
2
2 0 2.0 0
2 1 2.0 0

1  3
C     4    0.31479    -6.923770    0.963600    0.000000    0.000000
           0.30228     9.575950    0.000000    0.000000
           0.36878    -0.009960    0.000000    0.000000
                       0.000000    0.000000    0.000000
2
2 0 2.0
2 1 2.0
# lmax
# element, Zeff, rloc and coeffs
# l=0 r0, hnn
# l=1 r1, hnn
# knn for l=1

# HGH PBE
Si GTH-PBE-q4 GTH-PBE
    2    2
     0.44000000    1    -6.26928833
    2
     0.43563383    2     8.95174150    -2.70627082
                                        3.49378060
     0.49794218    1     2.43127673

#
# s, p
